\ENCODING=ISO-8859-1
\Problem name: 

Minimize
 obj1:
Subject To
 Constraint_flow_enforcing_road_wide_node1node3_1: flow_wide_node1node3_t1
                                 + flow_wide_node3node1_t1 <= 0
 Constraint_flow_enforcing_road_wide_node1node2_1: flow_wide_node1node2_t1
                                 + flow_wide_node2node1_t1 <= 0
 Constraint_flow_enforcing_road_wide_node1node7_1: flow_wide_node1node7_t1
                                 + flow_wide_node7node1_t1 <= 0
 Constraint_flow_enforcing_road_wide_node1node12_1: flow_wide_node1node12_t1
                                 + flow_wide_node12node1_t1 <= 0
 Constraint_flow_enforcing_road_wide_node1node15_1: flow_wide_node1node15_t1
                                 + flow_wide_node15node1_t1 <= 0
 Constraint_flow_enforcing_road_wide_node2node3_1: flow_wide_node3node2_t1
                                 + flow_wide_node2node3_t1 <= 0
 Constraint_flow_enforcing_road_wide_node2node12_1: flow_wide_node2node12_t1
                                 + flow_wide_node12node2_t1 <= 0
 Constraint_flow_enforcing_road_wide_node2node15_1: flow_wide_node2node15_t1
                                 + flow_wide_node15node2_t1 <= 0
 Constraint_flow_enforcing_road_wide_node3node8_1: flow_wide_node3node8_t1
                                 + flow_wide_node8node3_t1 <= 0
 Constraint_flow_enforcing_road_wide_node3node12_1: flow_wide_node3node12_t1
                                 + flow_wide_node12node3_t1 <= 0
 Constraint_flow_enforcing_road_wide_node3node15_1: flow_wide_node3node15_t1
                                 + flow_wide_node15node3_t1 <= 0
 Constraint_flow_enforcing_road_wide_node4node5_1: flow_wide_node4node5_t1
                                 + flow_wide_node5node4_t1 <= 0
 Constraint_flow_enforcing_road_wide_node4node11_1: flow_wide_node4node11_t1
                                 + flow_wide_node11node4_t1 <= 0
 Constraint_flow_enforcing_road_wide_node4node6_1: flow_wide_node4node6_t1
                                 + flow_wide_node6node4_t1 <= 0
 Constraint_flow_enforcing_road_wide_node4node13_1: flow_wide_node4node13_t1
                                 + flow_wide_node13node4_t1 <= 0
 Constraint_flow_enforcing_road_wide_node4node14_1: flow_wide_node4node14_t1
                                 + flow_wide_node14node4_t1 <= 0
 Constraint_flow_enforcing_road_wide_node5node8_1: flow_wide_node8node5_t1
                                 + flow_wide_node5node8_t1 <= 0
 Constraint_flow_enforcing_road_wide_node5node13_1: flow_wide_node5node13_t1
                                 + flow_wide_node13node5_t1 <= 0
 Constraint_flow_enforcing_road_wide_node6node10_1: flow_wide_node6node10_t1
                                 + flow_wide_node10node6_t1 <= 0
 Constraint_flow_enforcing_road_wide_node6node9_1: flow_wide_node6node9_t1
                                 + flow_wide_node9node6_t1 <= 0
 Constraint_flow_enforcing_road_wide_node6node13_1: flow_wide_node6node13_t1
                                 + flow_wide_node13node6_t1 <= 0
 Constraint_flow_enforcing_road_wide_node6node14_1: flow_wide_node6node14_t1
                                 + flow_wide_node14node6_t1 <= 0
 Constraint_flow_enforcing_road_wide_node7node10_1: flow_wide_node7node10_t1
                                 + flow_wide_node10node7_t1 <= 0
 Constraint_flow_enforcing_road_wide_node7node8_1: flow_wide_node7node8_t1
                                 + flow_wide_node8node7_t1 <= 0
 Constraint_flow_enforcing_road_wide_node7node12_1: flow_wide_node7node12_t1
                                 + flow_wide_node12node7_t1 <= 0
 Constraint_flow_enforcing_road_wide_node7node13_1: flow_wide_node7node13_t1
                                 + flow_wide_node13node7_t1 <= 0
 Constraint_flow_enforcing_road_wide_node8node12_1: flow_wide_node12node8_t1
                                 + flow_wide_node8node12_t1 <= 0
 Constraint_flow_enforcing_road_wide_node8node13_1: flow_wide_node8node13_t1
                                 + flow_wide_node13node8_t1 <= 0
 Constraint_flow_enforcing_road_wide_node9node11_1: flow_wide_node11node9_t1
                                 + flow_wide_node9node11_t1 <= 0
 Constraint_flow_enforcing_road_wide_node9node14_1: flow_wide_node14node9_t1
                                 + flow_wide_node9node14_t1 <= 0
 Constraint_flow_enforcing_road_wide_node10node13_1: flow_wide_node13node10_t1
                                 + flow_wide_node10node13_t1 <= 0
 Constraint_flow_enforcing_road_wide_node11node14_1: flow_wide_node11node14_t1
                                 + flow_wide_node14node11_t1 <= 0
 Constraint_flow_enforcing_road_wide_node1node3_2: flow_wide_node1node3_t2
                                 + flow_wide_node3node1_t2 <= 0
 Constraint_flow_enforcing_road_wide_node1node2_2: flow_wide_node1node2_t2
                                 + flow_wide_node2node1_t2 <= 0
 Constraint_flow_enforcing_road_wide_node1node7_2: flow_wide_node1node7_t2
                                 + flow_wide_node7node1_t2 <= 0
 Constraint_flow_enforcing_road_wide_node1node12_2: flow_wide_node1node12_t2
                                 + flow_wide_node12node1_t2 <= 0
 Constraint_flow_enforcing_road_wide_node1node15_2: flow_wide_node1node15_t2
                                 + flow_wide_node15node1_t2 <= 0
 Constraint_flow_enforcing_road_wide_node2node3_2: flow_wide_node3node2_t2
                                 + flow_wide_node2node3_t2 <= 0
 Constraint_flow_enforcing_road_wide_node2node12_2: flow_wide_node2node12_t2
                                 + flow_wide_node12node2_t2 <= 0
 Constraint_flow_enforcing_road_wide_node2node15_2: flow_wide_node2node15_t2
                                 + flow_wide_node15node2_t2 <= 0
 Constraint_flow_enforcing_road_wide_node3node8_2: flow_wide_node3node8_t2
                                 + flow_wide_node8node3_t2 <= 0
 Constraint_flow_enforcing_road_wide_node3node12_2: flow_wide_node3node12_t2
                                 + flow_wide_node12node3_t2 <= 0
 Constraint_flow_enforcing_road_wide_node3node15_2: flow_wide_node3node15_t2
                                 + flow_wide_node15node3_t2 <= 0
 Constraint_flow_enforcing_road_wide_node4node5_2: flow_wide_node4node5_t2
                                 + flow_wide_node5node4_t2 <= 0
 Constraint_flow_enforcing_road_wide_node4node11_2: flow_wide_node4node11_t2
                                 + flow_wide_node11node4_t2 <= 0
 Constraint_flow_enforcing_road_wide_node4node6_2: flow_wide_node4node6_t2
                                 + flow_wide_node6node4_t2 <= 0
 Constraint_flow_enforcing_road_wide_node4node13_2: flow_wide_node4node13_t2
                                 + flow_wide_node13node4_t2 <= 0
 Constraint_flow_enforcing_road_wide_node4node14_2: flow_wide_node4node14_t2
                                 + flow_wide_node14node4_t2 <= 0
 Constraint_flow_enforcing_road_wide_node5node8_2: flow_wide_node8node5_t2
                                 + flow_wide_node5node8_t2 <= 0
 Constraint_flow_enforcing_road_wide_node5node13_2: flow_wide_node5node13_t2
                                 + flow_wide_node13node5_t2 <= 0
 Constraint_flow_enforcing_road_wide_node6node10_2: flow_wide_node6node10_t2
                                 + flow_wide_node10node6_t2 <= 0
 Constraint_flow_enforcing_road_wide_node6node9_2: flow_wide_node6node9_t2
                                 + flow_wide_node9node6_t2 <= 0
 Constraint_flow_enforcing_road_wide_node6node13_2: flow_wide_node6node13_t2
                                 + flow_wide_node13node6_t2 <= 0
 Constraint_flow_enforcing_road_wide_node6node14_2: flow_wide_node6node14_t2
                                 + flow_wide_node14node6_t2 <= 0
 Constraint_flow_enforcing_road_wide_node7node10_2: flow_wide_node7node10_t2
                                 + flow_wide_node10node7_t2 <= 0
 Constraint_flow_enforcing_road_wide_node7node8_2: flow_wide_node7node8_t2
                                 + flow_wide_node8node7_t2 <= 0
 Constraint_flow_enforcing_road_wide_node7node12_2: flow_wide_node7node12_t2
                                 + flow_wide_node12node7_t2 <= 0
 Constraint_flow_enforcing_road_wide_node7node13_2: flow_wide_node7node13_t2
                                 + flow_wide_node13node7_t2 <= 0
 Constraint_flow_enforcing_road_wide_node8node12_2: flow_wide_node12node8_t2
                                 + flow_wide_node8node12_t2 <= 0
 Constraint_flow_enforcing_road_wide_node8node13_2: flow_wide_node8node13_t2
                                 + flow_wide_node13node8_t2 <= 0
 Constraint_flow_enforcing_road_wide_node9node11_2: flow_wide_node11node9_t2
                                 + flow_wide_node9node11_t2 <= 0
 Constraint_flow_enforcing_road_wide_node9node14_2: flow_wide_node14node9_t2
                                 + flow_wide_node9node14_t2 <= 0
 Constraint_flow_enforcing_road_wide_node10node13_2: flow_wide_node13node10_t2
                                 + flow_wide_node10node13_t2 <= 0
 Constraint_flow_enforcing_road_wide_node11node14_2: flow_wide_node11node14_t2
                                 + flow_wide_node14node11_t2 <= 0
 Constraint_flow_enforcing_road_wide_node1node3_3: flow_wide_node1node3_t3
                                 + flow_wide_node3node1_t3 <= 0
 Constraint_flow_enforcing_road_wide_node1node2_3: flow_wide_node1node2_t3
                                 + flow_wide_node2node1_t3 <= 0
 Constraint_flow_enforcing_road_wide_node1node7_3: flow_wide_node1node7_t3
                                 + flow_wide_node7node1_t3 <= 0
 Constraint_flow_enforcing_road_wide_node1node12_3: flow_wide_node1node12_t3
                                 + flow_wide_node12node1_t3 <= 0
 Constraint_flow_enforcing_road_wide_node1node15_3: flow_wide_node1node15_t3
                                 + flow_wide_node15node1_t3 <= 0
 Constraint_flow_enforcing_road_wide_node2node3_3: flow_wide_node3node2_t3
                                 + flow_wide_node2node3_t3 <= 0
 Constraint_flow_enforcing_road_wide_node2node12_3: flow_wide_node2node12_t3
                                 + flow_wide_node12node2_t3 <= 0
 Constraint_flow_enforcing_road_wide_node2node15_3: flow_wide_node2node15_t3
                                 + flow_wide_node15node2_t3 <= 0
 Constraint_flow_enforcing_road_wide_node3node8_3: flow_wide_node3node8_t3
                                 + flow_wide_node8node3_t3 <= 0
 Constraint_flow_enforcing_road_wide_node3node12_3: flow_wide_node3node12_t3
                                 + flow_wide_node12node3_t3 <= 0
 Constraint_flow_enforcing_road_wide_node3node15_3: flow_wide_node3node15_t3
                                 + flow_wide_node15node3_t3 <= 0
 Constraint_flow_enforcing_road_wide_node4node5_3: flow_wide_node4node5_t3
                                 + flow_wide_node5node4_t3 <= 0
 Constraint_flow_enforcing_road_wide_node4node11_3: flow_wide_node4node11_t3
                                 + flow_wide_node11node4_t3 <= 0
 Constraint_flow_enforcing_road_wide_node4node6_3: flow_wide_node4node6_t3
                                 + flow_wide_node6node4_t3 <= 0
 Constraint_flow_enforcing_road_wide_node4node13_3: flow_wide_node4node13_t3
                                 + flow_wide_node13node4_t3 <= 0
 Constraint_flow_enforcing_road_wide_node4node14_3: flow_wide_node4node14_t3
                                 + flow_wide_node14node4_t3 <= 0
 Constraint_flow_enforcing_road_wide_node5node8_3: flow_wide_node8node5_t3
                                 + flow_wide_node5node8_t3 <= 0
 Constraint_flow_enforcing_road_wide_node5node13_3: flow_wide_node5node13_t3
                                 + flow_wide_node13node5_t3 <= 0
 Constraint_flow_enforcing_road_wide_node6node10_3: flow_wide_node6node10_t3
                                 + flow_wide_node10node6_t3 <= 0
 Constraint_flow_enforcing_road_wide_node6node9_3: flow_wide_node6node9_t3
                                 + flow_wide_node9node6_t3 <= 0
 Constraint_flow_enforcing_road_wide_node6node13_3: flow_wide_node6node13_t3
                                 + flow_wide_node13node6_t3 <= 0
 Constraint_flow_enforcing_road_wide_node6node14_3: flow_wide_node6node14_t3
                                 + flow_wide_node14node6_t3 <= 0
 Constraint_flow_enforcing_road_wide_node7node10_3: flow_wide_node7node10_t3
                                 + flow_wide_node10node7_t3 <= 0
 Constraint_flow_enforcing_road_wide_node7node8_3: flow_wide_node7node8_t3
                                 + flow_wide_node8node7_t3 <= 0
 Constraint_flow_enforcing_road_wide_node7node12_3: flow_wide_node7node12_t3
                                 + flow_wide_node12node7_t3 <= 0
 Constraint_flow_enforcing_road_wide_node7node13_3: flow_wide_node7node13_t3
                                 + flow_wide_node13node7_t3 <= 0
 Constraint_flow_enforcing_road_wide_node8node12_3: flow_wide_node12node8_t3
                                 + flow_wide_node8node12_t3 <= 0
 Constraint_flow_enforcing_road_wide_node8node13_3: flow_wide_node8node13_t3
                                 + flow_wide_node13node8_t3 <= 0
 Constraint_flow_enforcing_road_wide_node9node11_3: flow_wide_node11node9_t3
                                 + flow_wide_node9node11_t3 <= 0
 Constraint_flow_enforcing_road_wide_node9node14_3: flow_wide_node14node9_t3
                                 + flow_wide_node9node14_t3 <= 0
 Constraint_flow_enforcing_road_wide_node10node13_3: flow_wide_node13node10_t3
                                 + flow_wide_node10node13_t3 <= 0
 Constraint_flow_enforcing_road_wide_node11node14_3: flow_wide_node11node14_t3
                                 + flow_wide_node14node11_t3 <= 0
 Constraint_flow_enforcing_road_wide_node1node3_4: flow_wide_node1node3_t4
                                 + flow_wide_node3node1_t4 <= 0
 Constraint_flow_enforcing_road_wide_node1node2_4: flow_wide_node1node2_t4
                                 + flow_wide_node2node1_t4 <= 0
 Constraint_flow_enforcing_road_wide_node1node7_4: flow_wide_node1node7_t4
                                 + flow_wide_node7node1_t4 <= 0
 Constraint_flow_enforcing_road_wide_node1node12_4: flow_wide_node1node12_t4
                                 + flow_wide_node12node1_t4 <= 0
 Constraint_flow_enforcing_road_wide_node1node15_4: flow_wide_node1node15_t4
                                 + flow_wide_node15node1_t4 <= 0
 Constraint_flow_enforcing_road_wide_node2node3_4: flow_wide_node3node2_t4
                                 + flow_wide_node2node3_t4 <= 0
 Constraint_flow_enforcing_road_wide_node2node12_4: flow_wide_node2node12_t4
                                 + flow_wide_node12node2_t4 <= 0
 Constraint_flow_enforcing_road_wide_node2node15_4: flow_wide_node2node15_t4
                                 + flow_wide_node15node2_t4 <= 0
 Constraint_flow_enforcing_road_wide_node3node8_4: flow_wide_node3node8_t4
                                 + flow_wide_node8node3_t4 <= 0
 Constraint_flow_enforcing_road_wide_node3node12_4: flow_wide_node3node12_t4
                                 + flow_wide_node12node3_t4 <= 0
 Constraint_flow_enforcing_road_wide_node3node15_4: flow_wide_node3node15_t4
                                 + flow_wide_node15node3_t4 <= 0
 Constraint_flow_enforcing_road_wide_node4node5_4: flow_wide_node4node5_t4
                                 + flow_wide_node5node4_t4 <= 0
 Constraint_flow_enforcing_road_wide_node4node11_4: flow_wide_node4node11_t4
                                 + flow_wide_node11node4_t4 <= 0
 Constraint_flow_enforcing_road_wide_node4node6_4: flow_wide_node4node6_t4
                                 + flow_wide_node6node4_t4 <= 0
 Constraint_flow_enforcing_road_wide_node4node13_4: flow_wide_node4node13_t4
                                 + flow_wide_node13node4_t4 <= 0
 Constraint_flow_enforcing_road_wide_node4node14_4: flow_wide_node4node14_t4
                                 + flow_wide_node14node4_t4 <= 0
 Constraint_flow_enforcing_road_wide_node5node8_4: flow_wide_node8node5_t4
                                 + flow_wide_node5node8_t4 <= 0
 Constraint_flow_enforcing_road_wide_node5node13_4: flow_wide_node5node13_t4
                                 + flow_wide_node13node5_t4 <= 0
 Constraint_flow_enforcing_road_wide_node6node10_4: flow_wide_node6node10_t4
                                 + flow_wide_node10node6_t4 <= 0
 Constraint_flow_enforcing_road_wide_node6node9_4: flow_wide_node6node9_t4
                                 + flow_wide_node9node6_t4 <= 0
 Constraint_flow_enforcing_road_wide_node6node13_4: flow_wide_node6node13_t4
                                 + flow_wide_node13node6_t4 <= 0
 Constraint_flow_enforcing_road_wide_node6node14_4: flow_wide_node6node14_t4
                                 + flow_wide_node14node6_t4 <= 0
 Constraint_flow_enforcing_road_wide_node7node10_4: flow_wide_node7node10_t4
                                 + flow_wide_node10node7_t4 <= 0
 Constraint_flow_enforcing_road_wide_node7node8_4: flow_wide_node7node8_t4
                                 + flow_wide_node8node7_t4 <= 0
 Constraint_flow_enforcing_road_wide_node7node12_4: flow_wide_node7node12_t4
                                 + flow_wide_node12node7_t4 <= 0
 Constraint_flow_enforcing_road_wide_node7node13_4: flow_wide_node7node13_t4
                                 + flow_wide_node13node7_t4 <= 0
 Constraint_flow_enforcing_road_wide_node8node12_4: flow_wide_node12node8_t4
                                 + flow_wide_node8node12_t4 <= 0
 Constraint_flow_enforcing_road_wide_node8node13_4: flow_wide_node8node13_t4
                                 + flow_wide_node13node8_t4 <= 0
 Constraint_flow_enforcing_road_wide_node9node11_4: flow_wide_node11node9_t4
                                 + flow_wide_node9node11_t4 <= 0
 Constraint_flow_enforcing_road_wide_node9node14_4: flow_wide_node14node9_t4
                                 + flow_wide_node9node14_t4 <= 0
 Constraint_flow_enforcing_road_wide_node10node13_4: flow_wide_node13node10_t4
                                 + flow_wide_node10node13_t4 <= 0
 Constraint_flow_enforcing_road_wide_node11node14_4: flow_wide_node11node14_t4
                                 + flow_wide_node14node11_t4 <= 0
 Constraint_flow_enforcing_road_wide_node1node3_5: flow_wide_node1node3_t5
                                 + flow_wide_node3node1_t5 <= 0
 Constraint_flow_enforcing_road_wide_node1node2_5: flow_wide_node1node2_t5
                                 + flow_wide_node2node1_t5 <= 0
 Constraint_flow_enforcing_road_wide_node1node7_5: flow_wide_node1node7_t5
                                 + flow_wide_node7node1_t5 <= 0
 Constraint_flow_enforcing_road_wide_node1node12_5: flow_wide_node1node12_t5
                                 + flow_wide_node12node1_t5 <= 0
 Constraint_flow_enforcing_road_wide_node1node15_5: flow_wide_node1node15_t5
                                 + flow_wide_node15node1_t5 <= 0
 Constraint_flow_enforcing_road_wide_node2node3_5: flow_wide_node3node2_t5
                                 + flow_wide_node2node3_t5 <= 0
 Constraint_flow_enforcing_road_wide_node2node12_5: flow_wide_node2node12_t5
                                 + flow_wide_node12node2_t5 <= 0
 Constraint_flow_enforcing_road_wide_node2node15_5: flow_wide_node2node15_t5
                                 + flow_wide_node15node2_t5 <= 0
 Constraint_flow_enforcing_road_wide_node3node8_5: flow_wide_node3node8_t5
                                 + flow_wide_node8node3_t5 <= 0
 Constraint_flow_enforcing_road_wide_node3node12_5: flow_wide_node3node12_t5
                                 + flow_wide_node12node3_t5 <= 0
 Constraint_flow_enforcing_road_wide_node3node15_5: flow_wide_node3node15_t5
                                 + flow_wide_node15node3_t5 <= 0
 Constraint_flow_enforcing_road_wide_node4node5_5: flow_wide_node4node5_t5
                                 + flow_wide_node5node4_t5 <= 0
 Constraint_flow_enforcing_road_wide_node4node11_5: flow_wide_node4node11_t5
                                 + flow_wide_node11node4_t5 <= 0
 Constraint_flow_enforcing_road_wide_node4node6_5: flow_wide_node4node6_t5
                                 + flow_wide_node6node4_t5 <= 0
 Constraint_flow_enforcing_road_wide_node4node13_5: flow_wide_node4node13_t5
                                 + flow_wide_node13node4_t5 <= 0
 Constraint_flow_enforcing_road_wide_node4node14_5: flow_wide_node4node14_t5
                                 + flow_wide_node14node4_t5 <= 0
 Constraint_flow_enforcing_road_wide_node5node8_5: flow_wide_node8node5_t5
                                 + flow_wide_node5node8_t5 <= 0
 Constraint_flow_enforcing_road_wide_node5node13_5: flow_wide_node5node13_t5
                                 + flow_wide_node13node5_t5 <= 0
 Constraint_flow_enforcing_road_wide_node6node10_5: flow_wide_node6node10_t5
                                 + flow_wide_node10node6_t5 <= 0
 Constraint_flow_enforcing_road_wide_node6node9_5: flow_wide_node6node9_t5
                                 + flow_wide_node9node6_t5 <= 0
 Constraint_flow_enforcing_road_wide_node6node13_5: flow_wide_node6node13_t5
                                 + flow_wide_node13node6_t5 <= 0
 Constraint_flow_enforcing_road_wide_node6node14_5: flow_wide_node6node14_t5
                                 + flow_wide_node14node6_t5 <= 0
 Constraint_flow_enforcing_road_wide_node7node10_5: flow_wide_node7node10_t5
                                 + flow_wide_node10node7_t5 <= 0
 Constraint_flow_enforcing_road_wide_node7node8_5: flow_wide_node7node8_t5
                                 + flow_wide_node8node7_t5 <= 0
 Constraint_flow_enforcing_road_wide_node7node12_5: flow_wide_node7node12_t5
                                 + flow_wide_node12node7_t5 <= 0
 Constraint_flow_enforcing_road_wide_node7node13_5: flow_wide_node7node13_t5
                                 + flow_wide_node13node7_t5 <= 0
 Constraint_flow_enforcing_road_wide_node8node12_5: flow_wide_node12node8_t5
                                 + flow_wide_node8node12_t5 <= 0
 Constraint_flow_enforcing_road_wide_node8node13_5: flow_wide_node8node13_t5
                                 + flow_wide_node13node8_t5 <= 0
 Constraint_flow_enforcing_road_wide_node9node11_5: flow_wide_node11node9_t5
                                 + flow_wide_node9node11_t5 <= 0
 Constraint_flow_enforcing_road_wide_node9node14_5: flow_wide_node14node9_t5
                                 + flow_wide_node9node14_t5 <= 0
 Constraint_flow_enforcing_road_wide_node10node13_5: flow_wide_node13node10_t5
                                 + flow_wide_node10node13_t5 <= 0
 Constraint_flow_enforcing_road_wide_node11node14_5: flow_wide_node11node14_t5
                                 + flow_wide_node14node11_t5 <= 0
 Constraint_timberflow_enforcing_road_node1node3_1: - 15 C_timber_node1node3_t1
                                 - 15 C_wide_node1node3_t1
                                 - 15 M_timber_node1node3_t1
                                 - 15 M_wide_node1node3_t1 - 15 U_node1node3_t1
                                 + flow_timber_node1node3_t1
                                 + flow_timber_node3node1_t1 <= 0
 Constraint_timberflow_enforcing_road_node1node2_1: - 15 C_timber_node1node2_t1
                                 - 15 C_wide_node1node2_t1
                                 - 15 M_timber_node1node2_t1
                                 - 15 M_wide_node1node2_t1 - 15 U_node1node2_t1
                                 + flow_timber_node1node2_t1
                                 + flow_timber_node2node1_t1 <= 0
 Constraint_timberflow_enforcing_road_node1node7_1: - 15 C_timber_node1node7_t1
                                 - 15 C_wide_node1node7_t1
                                 - 15 M_timber_node1node7_t1
                                 - 15 M_wide_node1node7_t1 - 15 U_node1node7_t1
                                 + flow_timber_node1node7_t1
                                 + flow_timber_node7node1_t1 <= 0
 Constraint_timberflow_enforcing_road_node1node12_1:
                                 - 15 C_timber_node1node12_t1
                                 - 15 C_wide_node1node12_t1
                                 - 15 M_timber_node1node12_t1
                                 - 15 M_wide_node1node12_t1
                                 - 15 U_node1node12_t1
                                 + flow_timber_node1node12_t1
                                 + flow_timber_node12node1_t1 <= 0
 Constraint_timberflow_enforcing_road_node1node15_1:
                                 - 15 C_timber_node1node15_t1
                                 - 15 C_wide_node1node15_t1
                                 - 15 M_timber_node1node15_t1
                                 - 15 M_wide_node1node15_t1
                                 - 15 U_node1node15_t1
                                 + flow_timber_node1node15_t1
                                 + flow_timber_node15node1_t1 <= 0
 Constraint_timberflow_enforcing_road_node2node3_1: - 15 C_timber_node2node3_t1
                                 - 15 C_wide_node2node3_t1
                                 - 15 M_timber_node2node3_t1
                                 - 15 M_wide_node2node3_t1 - 15 U_node2node3_t1
                                 + flow_timber_node3node2_t1
                                 + flow_timber_node2node3_t1 <= 0
 Constraint_timberflow_enforcing_road_node2node12_1:
                                 - 15 C_timber_node2node12_t1
                                 - 15 C_wide_node2node12_t1
                                 - 15 M_timber_node2node12_t1
                                 - 15 M_wide_node2node12_t1
                                 - 15 U_node2node12_t1
                                 + flow_timber_node2node12_t1
                                 + flow_timber_node12node2_t1 <= 0
 Constraint_timberflow_enforcing_road_node2node15_1:
                                 - 15 C_timber_node2node15_t1
                                 - 15 C_wide_node2node15_t1
                                 - 15 M_timber_node2node15_t1
                                 - 15 M_wide_node2node15_t1
                                 - 15 U_node2node15_t1
                                 + flow_timber_node2node15_t1
                                 + flow_timber_node15node2_t1 <= 0
 Constraint_timberflow_enforcing_road_node3node8_1: - 15 C_timber_node3node8_t1
                                 - 15 C_wide_node3node8_t1
                                 - 15 M_timber_node3node8_t1
                                 - 15 M_wide_node3node8_t1 - 15 U_node3node8_t1
                                 + flow_timber_node3node8_t1
                                 + flow_timber_node8node3_t1 <= 0
 Constraint_timberflow_enforcing_road_node3node12_1:
                                 - 15 C_timber_node3node12_t1
                                 - 15 C_wide_node3node12_t1
                                 - 15 M_timber_node3node12_t1
                                 - 15 M_wide_node3node12_t1
                                 - 15 U_node3node12_t1
                                 + flow_timber_node3node12_t1
                                 + flow_timber_node12node3_t1 <= 0
 Constraint_timberflow_enforcing_road_node3node15_1:
                                 - 15 C_timber_node3node15_t1
                                 - 15 C_wide_node3node15_t1
                                 - 15 M_timber_node3node15_t1
                                 - 15 M_wide_node3node15_t1
                                 - 15 U_node3node15_t1
                                 + flow_timber_node3node15_t1
                                 + flow_timber_node15node3_t1 <= 0
 Constraint_timberflow_enforcing_road_node4node5_1: - 15 C_timber_node4node5_t1
                                 - 15 C_wide_node4node5_t1
                                 - 15 M_timber_node4node5_t1
                                 - 15 M_wide_node4node5_t1 - 15 U_node4node5_t1
                                 + flow_timber_node4node5_t1
                                 + flow_timber_node5node4_t1 <= 0
 Constraint_timberflow_enforcing_road_node4node11_1:
                                 - 15 C_timber_node4node11_t1
                                 - 15 C_wide_node4node11_t1
                                 - 15 M_timber_node4node11_t1
                                 - 15 M_wide_node4node11_t1
                                 - 15 U_node4node11_t1
                                 + flow_timber_node4node11_t1
                                 + flow_timber_node11node4_t1 <= 0
 Constraint_timberflow_enforcing_road_node4node6_1: - 15 C_timber_node4node6_t1
                                 - 15 C_wide_node4node6_t1
                                 - 15 M_timber_node4node6_t1
                                 - 15 M_wide_node4node6_t1 - 15 U_node4node6_t1
                                 + flow_timber_node4node6_t1
                                 + flow_timber_node6node4_t1 <= 0
 Constraint_timberflow_enforcing_road_node4node13_1:
                                 - 15 C_timber_node4node13_t1
                                 - 15 C_wide_node4node13_t1
                                 - 15 M_timber_node4node13_t1
                                 - 15 M_wide_node4node13_t1
                                 - 15 U_node4node13_t1
                                 + flow_timber_node4node13_t1
                                 + flow_timber_node13node4_t1 <= 0
 Constraint_timberflow_enforcing_road_node4node14_1:
                                 - 15 C_timber_node4node14_t1
                                 - 15 C_wide_node4node14_t1
                                 - 15 M_timber_node4node14_t1
                                 - 15 M_wide_node4node14_t1
                                 - 15 U_node4node14_t1
                                 + flow_timber_node4node14_t1
                                 + flow_timber_node14node4_t1 <= 0
 Constraint_timberflow_enforcing_road_node5node8_1: - 15 C_timber_node5node8_t1
                                 - 15 C_wide_node5node8_t1
                                 - 15 M_timber_node5node8_t1
                                 - 15 M_wide_node5node8_t1 - 15 U_node5node8_t1
                                 + flow_timber_node8node5_t1
                                 + flow_timber_node5node8_t1 <= 0
 Constraint_timberflow_enforcing_road_node5node13_1:
                                 - 15 C_timber_node5node13_t1
                                 - 15 C_wide_node5node13_t1
                                 - 15 M_timber_node5node13_t1
                                 - 15 M_wide_node5node13_t1
                                 - 15 U_node5node13_t1
                                 + flow_timber_node5node13_t1
                                 + flow_timber_node13node5_t1 <= 0
 Constraint_timberflow_enforcing_road_node6node10_1:
                                 - 15 C_timber_node6node10_t1
                                 - 15 C_wide_node6node10_t1
                                 - 15 M_timber_node6node10_t1
                                 - 15 M_wide_node6node10_t1
                                 - 15 U_node6node10_t1
                                 + flow_timber_node6node10_t1
                                 + flow_timber_node10node6_t1 <= 0
 Constraint_timberflow_enforcing_road_node6node9_1: - 15 C_timber_node6node9_t1
                                 - 15 C_wide_node6node9_t1
                                 - 15 M_timber_node6node9_t1
                                 - 15 M_wide_node6node9_t1 - 15 U_node6node9_t1
                                 + flow_timber_node6node9_t1
                                 + flow_timber_node9node6_t1 <= 0
 Constraint_timberflow_enforcing_road_node6node13_1:
                                 - 15 C_timber_node6node13_t1
                                 - 15 C_wide_node6node13_t1
                                 - 15 M_timber_node6node13_t1
                                 - 15 M_wide_node6node13_t1
                                 - 15 U_node6node13_t1
                                 + flow_timber_node6node13_t1
                                 + flow_timber_node13node6_t1 <= 0
 Constraint_timberflow_enforcing_road_node6node14_1:
                                 - 15 C_timber_node6node14_t1
                                 - 15 C_wide_node6node14_t1
                                 - 15 M_timber_node6node14_t1
                                 - 15 M_wide_node6node14_t1
                                 - 15 U_node6node14_t1
                                 + flow_timber_node6node14_t1
                                 + flow_timber_node14node6_t1 <= 0
 Constraint_timberflow_enforcing_road_node7node10_1:
                                 - 15 C_timber_node7node10_t1
                                 - 15 C_wide_node7node10_t1
                                 - 15 M_timber_node7node10_t1
                                 - 15 M_wide_node7node10_t1
                                 - 15 U_node7node10_t1
                                 + flow_timber_node7node10_t1
                                 + flow_timber_node10node7_t1 <= 0
 Constraint_timberflow_enforcing_road_node7node8_1: - 15 C_timber_node7node8_t1
                                 - 15 C_wide_node7node8_t1
                                 - 15 M_timber_node7node8_t1
                                 - 15 M_wide_node7node8_t1 - 15 U_node7node8_t1
                                 + flow_timber_node7node8_t1
                                 + flow_timber_node8node7_t1 <= 0
 Constraint_timberflow_enforcing_road_node7node12_1:
                                 - 15 C_timber_node7node12_t1
                                 - 15 C_wide_node7node12_t1
                                 - 15 M_timber_node7node12_t1
                                 - 15 M_wide_node7node12_t1
                                 - 15 U_node7node12_t1
                                 + flow_timber_node7node12_t1
                                 + flow_timber_node12node7_t1 <= 0
 Constraint_timberflow_enforcing_road_node7node13_1:
                                 - 15 C_timber_node7node13_t1
                                 - 15 C_wide_node7node13_t1
                                 - 15 M_timber_node7node13_t1
                                 - 15 M_wide_node7node13_t1
                                 - 15 U_node7node13_t1
                                 + flow_timber_node7node13_t1
                                 + flow_timber_node13node7_t1 <= 0
 Constraint_timberflow_enforcing_road_node8node12_1:
                                 - 15 C_timber_node8node12_t1
                                 - 15 C_wide_node8node12_t1
                                 - 15 M_timber_node8node12_t1
                                 - 15 M_wide_node8node12_t1
                                 - 15 U_node8node12_t1
                                 + flow_timber_node12node8_t1
                                 + flow_timber_node8node12_t1 <= 0
 Constraint_timberflow_enforcing_road_node8node13_1:
                                 - 15 C_timber_node8node13_t1
                                 - 15 C_wide_node8node13_t1
                                 - 15 M_timber_node8node13_t1
                                 - 15 M_wide_node8node13_t1
                                 - 15 U_node8node13_t1
                                 + flow_timber_node8node13_t1
                                 + flow_timber_node13node8_t1 <= 0
 Constraint_timberflow_enforcing_road_node9node11_1:
                                 - 15 C_timber_node9node11_t1
                                 - 15 C_wide_node9node11_t1
                                 - 15 M_timber_node9node11_t1
                                 - 15 M_wide_node9node11_t1
                                 - 15 U_node9node11_t1
                                 + flow_timber_node11node9_t1
                                 + flow_timber_node9node11_t1 <= 0
 Constraint_timberflow_enforcing_road_node9node14_1:
                                 - 15 C_timber_node9node14_t1
                                 - 15 C_wide_node9node14_t1
                                 - 15 M_timber_node9node14_t1
                                 - 15 M_wide_node9node14_t1
                                 - 15 U_node9node14_t1
                                 + flow_timber_node14node9_t1
                                 + flow_timber_node9node14_t1 <= 0
 Constraint_timberflow_enforcing_road_node10node13_1:
                                 - 15 C_timber_node10node13_t1
                                 - 15 C_wide_node10node13_t1
                                 - 15 M_timber_node10node13_t1
                                 - 15 M_wide_node10node13_t1
                                 - 15 U_node10node13_t1
                                 + flow_timber_node13node10_t1
                                 + flow_timber_node10node13_t1 <= 0
 Constraint_timberflow_enforcing_road_node11node14_1:
                                 - 15 C_timber_node11node14_t1
                                 - 15 C_wide_node11node14_t1
                                 - 15 M_timber_node11node14_t1
                                 - 15 M_wide_node11node14_t1
                                 - 15 U_node11node14_t1
                                 + flow_timber_node11node14_t1
                                 + flow_timber_node14node11_t1 <= 0
 Constraint_timberflow_enforcing_road_node1node3_2: - 15 C_timber_node1node3_t2
                                 - 15 C_wide_node1node3_t2
                                 - 15 M_timber_node1node3_t2
                                 - 15 M_wide_node1node3_t2 - 15 U_node1node3_t2
                                 + flow_timber_node1node3_t2
                                 + flow_timber_node3node1_t2 <= 0
 Constraint_timberflow_enforcing_road_node1node2_2: - 15 C_timber_node1node2_t2
                                 - 15 C_wide_node1node2_t2
                                 - 15 M_timber_node1node2_t2
                                 - 15 M_wide_node1node2_t2 - 15 U_node1node2_t2
                                 + flow_timber_node1node2_t2
                                 + flow_timber_node2node1_t2 <= 0
 Constraint_timberflow_enforcing_road_node1node7_2: - 15 C_timber_node1node7_t2
                                 - 15 C_wide_node1node7_t2
                                 - 15 M_timber_node1node7_t2
                                 - 15 M_wide_node1node7_t2 - 15 U_node1node7_t2
                                 + flow_timber_node1node7_t2
                                 + flow_timber_node7node1_t2 <= 0
 Constraint_timberflow_enforcing_road_node1node12_2:
                                 - 15 C_timber_node1node12_t2
                                 - 15 C_wide_node1node12_t2
                                 - 15 M_timber_node1node12_t2
                                 - 15 M_wide_node1node12_t2
                                 - 15 U_node1node12_t2
                                 + flow_timber_node1node12_t2
                                 + flow_timber_node12node1_t2 <= 0
 Constraint_timberflow_enforcing_road_node1node15_2:
                                 - 15 C_timber_node1node15_t2
                                 - 15 C_wide_node1node15_t2
                                 - 15 M_timber_node1node15_t2
                                 - 15 M_wide_node1node15_t2
                                 - 15 U_node1node15_t2
                                 + flow_timber_node1node15_t2
                                 + flow_timber_node15node1_t2 <= 0
 Constraint_timberflow_enforcing_road_node2node3_2: - 15 C_timber_node2node3_t2
                                 - 15 C_wide_node2node3_t2
                                 - 15 M_timber_node2node3_t2
                                 - 15 M_wide_node2node3_t2 - 15 U_node2node3_t2
                                 + flow_timber_node3node2_t2
                                 + flow_timber_node2node3_t2 <= 0
 Constraint_timberflow_enforcing_road_node2node12_2:
                                 - 15 C_timber_node2node12_t2
                                 - 15 C_wide_node2node12_t2
                                 - 15 M_timber_node2node12_t2
                                 - 15 M_wide_node2node12_t2
                                 - 15 U_node2node12_t2
                                 + flow_timber_node2node12_t2
                                 + flow_timber_node12node2_t2 <= 0
 Constraint_timberflow_enforcing_road_node2node15_2:
                                 - 15 C_timber_node2node15_t2
                                 - 15 C_wide_node2node15_t2
                                 - 15 M_timber_node2node15_t2
                                 - 15 M_wide_node2node15_t2
                                 - 15 U_node2node15_t2
                                 + flow_timber_node2node15_t2
                                 + flow_timber_node15node2_t2 <= 0
 Constraint_timberflow_enforcing_road_node3node8_2: - 15 C_timber_node3node8_t2
                                 - 15 C_wide_node3node8_t2
                                 - 15 M_timber_node3node8_t2
                                 - 15 M_wide_node3node8_t2 - 15 U_node3node8_t2
                                 + flow_timber_node3node8_t2
                                 + flow_timber_node8node3_t2 <= 0
 Constraint_timberflow_enforcing_road_node3node12_2:
                                 - 15 C_timber_node3node12_t2
                                 - 15 C_wide_node3node12_t2
                                 - 15 M_timber_node3node12_t2
                                 - 15 M_wide_node3node12_t2
                                 - 15 U_node3node12_t2
                                 + flow_timber_node3node12_t2
                                 + flow_timber_node12node3_t2 <= 0
 Constraint_timberflow_enforcing_road_node3node15_2:
                                 - 15 C_timber_node3node15_t2
                                 - 15 C_wide_node3node15_t2
                                 - 15 M_timber_node3node15_t2
                                 - 15 M_wide_node3node15_t2
                                 - 15 U_node3node15_t2
                                 + flow_timber_node3node15_t2
                                 + flow_timber_node15node3_t2 <= 0
 Constraint_timberflow_enforcing_road_node4node5_2: - 15 C_timber_node4node5_t2
                                 - 15 C_wide_node4node5_t2
                                 - 15 M_timber_node4node5_t2
                                 - 15 M_wide_node4node5_t2 - 15 U_node4node5_t2
                                 + flow_timber_node4node5_t2
                                 + flow_timber_node5node4_t2 <= 0
 Constraint_timberflow_enforcing_road_node4node11_2:
                                 - 15 C_timber_node4node11_t2
                                 - 15 C_wide_node4node11_t2
                                 - 15 M_timber_node4node11_t2
                                 - 15 M_wide_node4node11_t2
                                 - 15 U_node4node11_t2
                                 + flow_timber_node4node11_t2
                                 + flow_timber_node11node4_t2 <= 0
 Constraint_timberflow_enforcing_road_node4node6_2: - 15 C_timber_node4node6_t2
                                 - 15 C_wide_node4node6_t2
                                 - 15 M_timber_node4node6_t2
                                 - 15 M_wide_node4node6_t2 - 15 U_node4node6_t2
                                 + flow_timber_node4node6_t2
                                 + flow_timber_node6node4_t2 <= 0
 Constraint_timberflow_enforcing_road_node4node13_2:
                                 - 15 C_timber_node4node13_t2
                                 - 15 C_wide_node4node13_t2
                                 - 15 M_timber_node4node13_t2
                                 - 15 M_wide_node4node13_t2
                                 - 15 U_node4node13_t2
                                 + flow_timber_node4node13_t2
                                 + flow_timber_node13node4_t2 <= 0
 Constraint_timberflow_enforcing_road_node4node14_2:
                                 - 15 C_timber_node4node14_t2
                                 - 15 C_wide_node4node14_t2
                                 - 15 M_timber_node4node14_t2
                                 - 15 M_wide_node4node14_t2
                                 - 15 U_node4node14_t2
                                 + flow_timber_node4node14_t2
                                 + flow_timber_node14node4_t2 <= 0
 Constraint_timberflow_enforcing_road_node5node8_2: - 15 C_timber_node5node8_t2
                                 - 15 C_wide_node5node8_t2
                                 - 15 M_timber_node5node8_t2
                                 - 15 M_wide_node5node8_t2 - 15 U_node5node8_t2
                                 + flow_timber_node8node5_t2
                                 + flow_timber_node5node8_t2 <= 0
 Constraint_timberflow_enforcing_road_node5node13_2:
                                 - 15 C_timber_node5node13_t2
                                 - 15 C_wide_node5node13_t2
                                 - 15 M_timber_node5node13_t2
                                 - 15 M_wide_node5node13_t2
                                 - 15 U_node5node13_t2
                                 + flow_timber_node5node13_t2
                                 + flow_timber_node13node5_t2 <= 0
 Constraint_timberflow_enforcing_road_node6node10_2:
                                 - 15 C_timber_node6node10_t2
                                 - 15 C_wide_node6node10_t2
                                 - 15 M_timber_node6node10_t2
                                 - 15 M_wide_node6node10_t2
                                 - 15 U_node6node10_t2
                                 + flow_timber_node6node10_t2
                                 + flow_timber_node10node6_t2 <= 0
 Constraint_timberflow_enforcing_road_node6node9_2: - 15 C_timber_node6node9_t2
                                 - 15 C_wide_node6node9_t2
                                 - 15 M_timber_node6node9_t2
                                 - 15 M_wide_node6node9_t2 - 15 U_node6node9_t2
                                 + flow_timber_node6node9_t2
                                 + flow_timber_node9node6_t2 <= 0
 Constraint_timberflow_enforcing_road_node6node13_2:
                                 - 15 C_timber_node6node13_t2
                                 - 15 C_wide_node6node13_t2
                                 - 15 M_timber_node6node13_t2
                                 - 15 M_wide_node6node13_t2
                                 - 15 U_node6node13_t2
                                 + flow_timber_node6node13_t2
                                 + flow_timber_node13node6_t2 <= 0
 Constraint_timberflow_enforcing_road_node6node14_2:
                                 - 15 C_timber_node6node14_t2
                                 - 15 C_wide_node6node14_t2
                                 - 15 M_timber_node6node14_t2
                                 - 15 M_wide_node6node14_t2
                                 - 15 U_node6node14_t2
                                 + flow_timber_node6node14_t2
                                 + flow_timber_node14node6_t2 <= 0
 Constraint_timberflow_enforcing_road_node7node10_2:
                                 - 15 C_timber_node7node10_t2
                                 - 15 C_wide_node7node10_t2
                                 - 15 M_timber_node7node10_t2
                                 - 15 M_wide_node7node10_t2
                                 - 15 U_node7node10_t2
                                 + flow_timber_node7node10_t2
                                 + flow_timber_node10node7_t2 <= 0
 Constraint_timberflow_enforcing_road_node7node8_2: - 15 C_timber_node7node8_t2
                                 - 15 C_wide_node7node8_t2
                                 - 15 M_timber_node7node8_t2
                                 - 15 M_wide_node7node8_t2 - 15 U_node7node8_t2
                                 + flow_timber_node7node8_t2
                                 + flow_timber_node8node7_t2 <= 0
 Constraint_timberflow_enforcing_road_node7node12_2:
                                 - 15 C_timber_node7node12_t2
                                 - 15 C_wide_node7node12_t2
                                 - 15 M_timber_node7node12_t2
                                 - 15 M_wide_node7node12_t2
                                 - 15 U_node7node12_t2
                                 + flow_timber_node7node12_t2
                                 + flow_timber_node12node7_t2 <= 0
 Constraint_timberflow_enforcing_road_node7node13_2:
                                 - 15 C_timber_node7node13_t2
                                 - 15 C_wide_node7node13_t2
                                 - 15 M_timber_node7node13_t2
                                 - 15 M_wide_node7node13_t2
                                 - 15 U_node7node13_t2
                                 + flow_timber_node7node13_t2
                                 + flow_timber_node13node7_t2 <= 0
 Constraint_timberflow_enforcing_road_node8node12_2:
                                 - 15 C_timber_node8node12_t2
                                 - 15 C_wide_node8node12_t2
                                 - 15 M_timber_node8node12_t2
                                 - 15 M_wide_node8node12_t2
                                 - 15 U_node8node12_t2
                                 + flow_timber_node12node8_t2
                                 + flow_timber_node8node12_t2 <= 0
 Constraint_timberflow_enforcing_road_node8node13_2:
                                 - 15 C_timber_node8node13_t2
                                 - 15 C_wide_node8node13_t2
                                 - 15 M_timber_node8node13_t2
                                 - 15 M_wide_node8node13_t2
                                 - 15 U_node8node13_t2
                                 + flow_timber_node8node13_t2
                                 + flow_timber_node13node8_t2 <= 0
 Constraint_timberflow_enforcing_road_node9node11_2:
                                 - 15 C_timber_node9node11_t2
                                 - 15 C_wide_node9node11_t2
                                 - 15 M_timber_node9node11_t2
                                 - 15 M_wide_node9node11_t2
                                 - 15 U_node9node11_t2
                                 + flow_timber_node11node9_t2
                                 + flow_timber_node9node11_t2 <= 0
 Constraint_timberflow_enforcing_road_node9node14_2:
                                 - 15 C_timber_node9node14_t2
                                 - 15 C_wide_node9node14_t2
                                 - 15 M_timber_node9node14_t2
                                 - 15 M_wide_node9node14_t2
                                 - 15 U_node9node14_t2
                                 + flow_timber_node14node9_t2
                                 + flow_timber_node9node14_t2 <= 0
 Constraint_timberflow_enforcing_road_node10node13_2:
                                 - 15 C_timber_node10node13_t2
                                 - 15 C_wide_node10node13_t2
                                 - 15 M_timber_node10node13_t2
                                 - 15 M_wide_node10node13_t2
                                 - 15 U_node10node13_t2
                                 + flow_timber_node13node10_t2
                                 + flow_timber_node10node13_t2 <= 0
 Constraint_timberflow_enforcing_road_node11node14_2:
                                 - 15 C_timber_node11node14_t2
                                 - 15 C_wide_node11node14_t2
                                 - 15 M_timber_node11node14_t2
                                 - 15 M_wide_node11node14_t2
                                 - 15 U_node11node14_t2
                                 + flow_timber_node11node14_t2
                                 + flow_timber_node14node11_t2 <= 0
 Constraint_timberflow_enforcing_road_node1node3_3: - 15 C_timber_node1node3_t3
                                 - 15 C_wide_node1node3_t3
                                 - 15 M_timber_node1node3_t3
                                 - 15 M_wide_node1node3_t3 - 15 U_node1node3_t3
                                 + flow_timber_node1node3_t3
                                 + flow_timber_node3node1_t3 <= 0
 Constraint_timberflow_enforcing_road_node1node2_3: - 15 C_timber_node1node2_t3
                                 - 15 C_wide_node1node2_t3
                                 - 15 M_timber_node1node2_t3
                                 - 15 M_wide_node1node2_t3 - 15 U_node1node2_t3
                                 + flow_timber_node1node2_t3
                                 + flow_timber_node2node1_t3 <= 0
 Constraint_timberflow_enforcing_road_node1node7_3: - 15 C_timber_node1node7_t3
                                 - 15 C_wide_node1node7_t3
                                 - 15 M_timber_node1node7_t3
                                 - 15 M_wide_node1node7_t3 - 15 U_node1node7_t3
                                 + flow_timber_node1node7_t3
                                 + flow_timber_node7node1_t3 <= 0
 Constraint_timberflow_enforcing_road_node1node12_3:
                                 - 15 C_timber_node1node12_t3
                                 - 15 C_wide_node1node12_t3
                                 - 15 M_timber_node1node12_t3
                                 - 15 M_wide_node1node12_t3
                                 - 15 U_node1node12_t3
                                 + flow_timber_node1node12_t3
                                 + flow_timber_node12node1_t3 <= 0
 Constraint_timberflow_enforcing_road_node1node15_3:
                                 - 15 C_timber_node1node15_t3
                                 - 15 C_wide_node1node15_t3
                                 - 15 M_timber_node1node15_t3
                                 - 15 M_wide_node1node15_t3
                                 - 15 U_node1node15_t3
                                 + flow_timber_node1node15_t3
                                 + flow_timber_node15node1_t3 <= 0
 Constraint_timberflow_enforcing_road_node2node3_3: - 15 C_timber_node2node3_t3
                                 - 15 C_wide_node2node3_t3
                                 - 15 M_timber_node2node3_t3
                                 - 15 M_wide_node2node3_t3 - 15 U_node2node3_t3
                                 + flow_timber_node3node2_t3
                                 + flow_timber_node2node3_t3 <= 0
 Constraint_timberflow_enforcing_road_node2node12_3:
                                 - 15 C_timber_node2node12_t3
                                 - 15 C_wide_node2node12_t3
                                 - 15 M_timber_node2node12_t3
                                 - 15 M_wide_node2node12_t3
                                 - 15 U_node2node12_t3
                                 + flow_timber_node2node12_t3
                                 + flow_timber_node12node2_t3 <= 0
 Constraint_timberflow_enforcing_road_node2node15_3:
                                 - 15 C_timber_node2node15_t3
                                 - 15 C_wide_node2node15_t3
                                 - 15 M_timber_node2node15_t3
                                 - 15 M_wide_node2node15_t3
                                 - 15 U_node2node15_t3
                                 + flow_timber_node2node15_t3
                                 + flow_timber_node15node2_t3 <= 0
 Constraint_timberflow_enforcing_road_node3node8_3: - 15 C_timber_node3node8_t3
                                 - 15 C_wide_node3node8_t3
                                 - 15 M_timber_node3node8_t3
                                 - 15 M_wide_node3node8_t3 - 15 U_node3node8_t3
                                 + flow_timber_node3node8_t3
                                 + flow_timber_node8node3_t3 <= 0
 Constraint_timberflow_enforcing_road_node3node12_3:
                                 - 15 C_timber_node3node12_t3
                                 - 15 C_wide_node3node12_t3
                                 - 15 M_timber_node3node12_t3
                                 - 15 M_wide_node3node12_t3
                                 - 15 U_node3node12_t3
                                 + flow_timber_node3node12_t3
                                 + flow_timber_node12node3_t3 <= 0
 Constraint_timberflow_enforcing_road_node3node15_3:
                                 - 15 C_timber_node3node15_t3
                                 - 15 C_wide_node3node15_t3
                                 - 15 M_timber_node3node15_t3
                                 - 15 M_wide_node3node15_t3
                                 - 15 U_node3node15_t3
                                 + flow_timber_node3node15_t3
                                 + flow_timber_node15node3_t3 <= 0
 Constraint_timberflow_enforcing_road_node4node5_3: - 15 C_timber_node4node5_t3
                                 - 15 C_wide_node4node5_t3
                                 - 15 M_timber_node4node5_t3
                                 - 15 M_wide_node4node5_t3 - 15 U_node4node5_t3
                                 + flow_timber_node4node5_t3
                                 + flow_timber_node5node4_t3 <= 0
 Constraint_timberflow_enforcing_road_node4node11_3:
                                 - 15 C_timber_node4node11_t3
                                 - 15 C_wide_node4node11_t3
                                 - 15 M_timber_node4node11_t3
                                 - 15 M_wide_node4node11_t3
                                 - 15 U_node4node11_t3
                                 + flow_timber_node4node11_t3
                                 + flow_timber_node11node4_t3 <= 0
 Constraint_timberflow_enforcing_road_node4node6_3: - 15 C_timber_node4node6_t3
                                 - 15 C_wide_node4node6_t3
                                 - 15 M_timber_node4node6_t3
                                 - 15 M_wide_node4node6_t3 - 15 U_node4node6_t3
                                 + flow_timber_node4node6_t3
                                 + flow_timber_node6node4_t3 <= 0
 Constraint_timberflow_enforcing_road_node4node13_3:
                                 - 15 C_timber_node4node13_t3
                                 - 15 C_wide_node4node13_t3
                                 - 15 M_timber_node4node13_t3
                                 - 15 M_wide_node4node13_t3
                                 - 15 U_node4node13_t3
                                 + flow_timber_node4node13_t3
                                 + flow_timber_node13node4_t3 <= 0
 Constraint_timberflow_enforcing_road_node4node14_3:
                                 - 15 C_timber_node4node14_t3
                                 - 15 C_wide_node4node14_t3
                                 - 15 M_timber_node4node14_t3
                                 - 15 M_wide_node4node14_t3
                                 - 15 U_node4node14_t3
                                 + flow_timber_node4node14_t3
                                 + flow_timber_node14node4_t3 <= 0
 Constraint_timberflow_enforcing_road_node5node8_3: - 15 C_timber_node5node8_t3
                                 - 15 C_wide_node5node8_t3
                                 - 15 M_timber_node5node8_t3
                                 - 15 M_wide_node5node8_t3 - 15 U_node5node8_t3
                                 + flow_timber_node8node5_t3
                                 + flow_timber_node5node8_t3 <= 0
 Constraint_timberflow_enforcing_road_node5node13_3:
                                 - 15 C_timber_node5node13_t3
                                 - 15 C_wide_node5node13_t3
                                 - 15 M_timber_node5node13_t3
                                 - 15 M_wide_node5node13_t3
                                 - 15 U_node5node13_t3
                                 + flow_timber_node5node13_t3
                                 + flow_timber_node13node5_t3 <= 0
 Constraint_timberflow_enforcing_road_node6node10_3:
                                 - 15 C_timber_node6node10_t3
                                 - 15 C_wide_node6node10_t3
                                 - 15 M_timber_node6node10_t3
                                 - 15 M_wide_node6node10_t3
                                 - 15 U_node6node10_t3
                                 + flow_timber_node6node10_t3
                                 + flow_timber_node10node6_t3 <= 0
 Constraint_timberflow_enforcing_road_node6node9_3: - 15 C_timber_node6node9_t3
                                 - 15 C_wide_node6node9_t3
                                 - 15 M_timber_node6node9_t3
                                 - 15 M_wide_node6node9_t3 - 15 U_node6node9_t3
                                 + flow_timber_node6node9_t3
                                 + flow_timber_node9node6_t3 <= 0
 Constraint_timberflow_enforcing_road_node6node13_3:
                                 - 15 C_timber_node6node13_t3
                                 - 15 C_wide_node6node13_t3
                                 - 15 M_timber_node6node13_t3
                                 - 15 M_wide_node6node13_t3
                                 - 15 U_node6node13_t3
                                 + flow_timber_node6node13_t3
                                 + flow_timber_node13node6_t3 <= 0
 Constraint_timberflow_enforcing_road_node6node14_3:
                                 - 15 C_timber_node6node14_t3
                                 - 15 C_wide_node6node14_t3
                                 - 15 M_timber_node6node14_t3
                                 - 15 M_wide_node6node14_t3
                                 - 15 U_node6node14_t3
                                 + flow_timber_node6node14_t3
                                 + flow_timber_node14node6_t3 <= 0
 Constraint_timberflow_enforcing_road_node7node10_3:
                                 - 15 C_timber_node7node10_t3
                                 - 15 C_wide_node7node10_t3
                                 - 15 M_timber_node7node10_t3
                                 - 15 M_wide_node7node10_t3
                                 - 15 U_node7node10_t3
                                 + flow_timber_node7node10_t3
                                 + flow_timber_node10node7_t3 <= 0
 Constraint_timberflow_enforcing_road_node7node8_3: - 15 C_timber_node7node8_t3
                                 - 15 C_wide_node7node8_t3
                                 - 15 M_timber_node7node8_t3
                                 - 15 M_wide_node7node8_t3 - 15 U_node7node8_t3
                                 + flow_timber_node7node8_t3
                                 + flow_timber_node8node7_t3 <= 0
 Constraint_timberflow_enforcing_road_node7node12_3:
                                 - 15 C_timber_node7node12_t3
                                 - 15 C_wide_node7node12_t3
                                 - 15 M_timber_node7node12_t3
                                 - 15 M_wide_node7node12_t3
                                 - 15 U_node7node12_t3
                                 + flow_timber_node7node12_t3
                                 + flow_timber_node12node7_t3 <= 0
 Constraint_timberflow_enforcing_road_node7node13_3:
                                 - 15 C_timber_node7node13_t3
                                 - 15 C_wide_node7node13_t3
                                 - 15 M_timber_node7node13_t3
                                 - 15 M_wide_node7node13_t3
                                 - 15 U_node7node13_t3
                                 + flow_timber_node7node13_t3
                                 + flow_timber_node13node7_t3 <= 0
 Constraint_timberflow_enforcing_road_node8node12_3:
                                 - 15 C_timber_node8node12_t3
                                 - 15 C_wide_node8node12_t3
                                 - 15 M_timber_node8node12_t3
                                 - 15 M_wide_node8node12_t3
                                 - 15 U_node8node12_t3
                                 + flow_timber_node12node8_t3
                                 + flow_timber_node8node12_t3 <= 0
 Constraint_timberflow_enforcing_road_node8node13_3:
                                 - 15 C_timber_node8node13_t3
                                 - 15 C_wide_node8node13_t3
                                 - 15 M_timber_node8node13_t3
                                 - 15 M_wide_node8node13_t3
                                 - 15 U_node8node13_t3
                                 + flow_timber_node8node13_t3
                                 + flow_timber_node13node8_t3 <= 0
 Constraint_timberflow_enforcing_road_node9node11_3:
                                 - 15 C_timber_node9node11_t3
                                 - 15 C_wide_node9node11_t3
                                 - 15 M_timber_node9node11_t3
                                 - 15 M_wide_node9node11_t3
                                 - 15 U_node9node11_t3
                                 + flow_timber_node11node9_t3
                                 + flow_timber_node9node11_t3 <= 0
 Constraint_timberflow_enforcing_road_node9node14_3:
                                 - 15 C_timber_node9node14_t3
                                 - 15 C_wide_node9node14_t3
                                 - 15 M_timber_node9node14_t3
                                 - 15 M_wide_node9node14_t3
                                 - 15 U_node9node14_t3
                                 + flow_timber_node14node9_t3
                                 + flow_timber_node9node14_t3 <= 0
 Constraint_timberflow_enforcing_road_node10node13_3:
                                 - 15 C_timber_node10node13_t3
                                 - 15 C_wide_node10node13_t3
                                 - 15 M_timber_node10node13_t3
                                 - 15 M_wide_node10node13_t3
                                 - 15 U_node10node13_t3
                                 + flow_timber_node13node10_t3
                                 + flow_timber_node10node13_t3 <= 0
 Constraint_timberflow_enforcing_road_node11node14_3:
                                 - 15 C_timber_node11node14_t3
                                 - 15 C_wide_node11node14_t3
                                 - 15 M_timber_node11node14_t3
                                 - 15 M_wide_node11node14_t3
                                 - 15 U_node11node14_t3
                                 + flow_timber_node11node14_t3
                                 + flow_timber_node14node11_t3 <= 0
 Constraint_timberflow_enforcing_road_node1node3_4: - 15 C_timber_node1node3_t4
                                 - 15 C_wide_node1node3_t4
                                 - 15 M_timber_node1node3_t4
                                 - 15 M_wide_node1node3_t4 - 15 U_node1node3_t4
                                 + flow_timber_node1node3_t4
                                 + flow_timber_node3node1_t4 <= 0
 Constraint_timberflow_enforcing_road_node1node2_4: - 15 C_timber_node1node2_t4
                                 - 15 C_wide_node1node2_t4
                                 - 15 M_timber_node1node2_t4
                                 - 15 M_wide_node1node2_t4 - 15 U_node1node2_t4
                                 + flow_timber_node1node2_t4
                                 + flow_timber_node2node1_t4 <= 0
 Constraint_timberflow_enforcing_road_node1node7_4: - 15 C_timber_node1node7_t4
                                 - 15 C_wide_node1node7_t4
                                 - 15 M_timber_node1node7_t4
                                 - 15 M_wide_node1node7_t4 - 15 U_node1node7_t4
                                 + flow_timber_node1node7_t4
                                 + flow_timber_node7node1_t4 <= 0
 Constraint_timberflow_enforcing_road_node1node12_4:
                                 - 15 C_timber_node1node12_t4
                                 - 15 C_wide_node1node12_t4
                                 - 15 M_timber_node1node12_t4
                                 - 15 M_wide_node1node12_t4
                                 - 15 U_node1node12_t4
                                 + flow_timber_node1node12_t4
                                 + flow_timber_node12node1_t4 <= 0
 Constraint_timberflow_enforcing_road_node1node15_4:
                                 - 15 C_timber_node1node15_t4
                                 - 15 C_wide_node1node15_t4
                                 - 15 M_timber_node1node15_t4
                                 - 15 M_wide_node1node15_t4
                                 - 15 U_node1node15_t4
                                 + flow_timber_node1node15_t4
                                 + flow_timber_node15node1_t4 <= 0
 Constraint_timberflow_enforcing_road_node2node3_4: - 15 C_timber_node2node3_t4
                                 - 15 C_wide_node2node3_t4
                                 - 15 M_timber_node2node3_t4
                                 - 15 M_wide_node2node3_t4 - 15 U_node2node3_t4
                                 + flow_timber_node3node2_t4
                                 + flow_timber_node2node3_t4 <= 0
 Constraint_timberflow_enforcing_road_node2node12_4:
                                 - 15 C_timber_node2node12_t4
                                 - 15 C_wide_node2node12_t4
                                 - 15 M_timber_node2node12_t4
                                 - 15 M_wide_node2node12_t4
                                 - 15 U_node2node12_t4
                                 + flow_timber_node2node12_t4
                                 + flow_timber_node12node2_t4 <= 0
 Constraint_timberflow_enforcing_road_node2node15_4:
                                 - 15 C_timber_node2node15_t4
                                 - 15 C_wide_node2node15_t4
                                 - 15 M_timber_node2node15_t4
                                 - 15 M_wide_node2node15_t4
                                 - 15 U_node2node15_t4
                                 + flow_timber_node2node15_t4
                                 + flow_timber_node15node2_t4 <= 0
 Constraint_timberflow_enforcing_road_node3node8_4: - 15 C_timber_node3node8_t4
                                 - 15 C_wide_node3node8_t4
                                 - 15 M_timber_node3node8_t4
                                 - 15 M_wide_node3node8_t4 - 15 U_node3node8_t4
                                 + flow_timber_node3node8_t4
                                 + flow_timber_node8node3_t4 <= 0
 Constraint_timberflow_enforcing_road_node3node12_4:
                                 - 15 C_timber_node3node12_t4
                                 - 15 C_wide_node3node12_t4
                                 - 15 M_timber_node3node12_t4
                                 - 15 M_wide_node3node12_t4
                                 - 15 U_node3node12_t4
                                 + flow_timber_node3node12_t4
                                 + flow_timber_node12node3_t4 <= 0
 Constraint_timberflow_enforcing_road_node3node15_4:
                                 - 15 C_timber_node3node15_t4
                                 - 15 C_wide_node3node15_t4
                                 - 15 M_timber_node3node15_t4
                                 - 15 M_wide_node3node15_t4
                                 - 15 U_node3node15_t4
                                 + flow_timber_node3node15_t4
                                 + flow_timber_node15node3_t4 <= 0
 Constraint_timberflow_enforcing_road_node4node5_4: - 15 C_timber_node4node5_t4
                                 - 15 C_wide_node4node5_t4
                                 - 15 M_timber_node4node5_t4
                                 - 15 M_wide_node4node5_t4 - 15 U_node4node5_t4
                                 + flow_timber_node4node5_t4
                                 + flow_timber_node5node4_t4 <= 0
 Constraint_timberflow_enforcing_road_node4node11_4:
                                 - 15 C_timber_node4node11_t4
                                 - 15 C_wide_node4node11_t4
                                 - 15 M_timber_node4node11_t4
                                 - 15 M_wide_node4node11_t4
                                 - 15 U_node4node11_t4
                                 + flow_timber_node4node11_t4
                                 + flow_timber_node11node4_t4 <= 0
 Constraint_timberflow_enforcing_road_node4node6_4: - 15 C_timber_node4node6_t4
                                 - 15 C_wide_node4node6_t4
                                 - 15 M_timber_node4node6_t4
                                 - 15 M_wide_node4node6_t4 - 15 U_node4node6_t4
                                 + flow_timber_node4node6_t4
                                 + flow_timber_node6node4_t4 <= 0
 Constraint_timberflow_enforcing_road_node4node13_4:
                                 - 15 C_timber_node4node13_t4
                                 - 15 C_wide_node4node13_t4
                                 - 15 M_timber_node4node13_t4
                                 - 15 M_wide_node4node13_t4
                                 - 15 U_node4node13_t4
                                 + flow_timber_node4node13_t4
                                 + flow_timber_node13node4_t4 <= 0
 Constraint_timberflow_enforcing_road_node4node14_4:
                                 - 15 C_timber_node4node14_t4
                                 - 15 C_wide_node4node14_t4
                                 - 15 M_timber_node4node14_t4
                                 - 15 M_wide_node4node14_t4
                                 - 15 U_node4node14_t4
                                 + flow_timber_node4node14_t4
                                 + flow_timber_node14node4_t4 <= 0
 Constraint_timberflow_enforcing_road_node5node8_4: - 15 C_timber_node5node8_t4
                                 - 15 C_wide_node5node8_t4
                                 - 15 M_timber_node5node8_t4
                                 - 15 M_wide_node5node8_t4 - 15 U_node5node8_t4
                                 + flow_timber_node8node5_t4
                                 + flow_timber_node5node8_t4 <= 0
 Constraint_timberflow_enforcing_road_node5node13_4:
                                 - 15 C_timber_node5node13_t4
                                 - 15 C_wide_node5node13_t4
                                 - 15 M_timber_node5node13_t4
                                 - 15 M_wide_node5node13_t4
                                 - 15 U_node5node13_t4
                                 + flow_timber_node5node13_t4
                                 + flow_timber_node13node5_t4 <= 0
 Constraint_timberflow_enforcing_road_node6node10_4:
                                 - 15 C_timber_node6node10_t4
                                 - 15 C_wide_node6node10_t4
                                 - 15 M_timber_node6node10_t4
                                 - 15 M_wide_node6node10_t4
                                 - 15 U_node6node10_t4
                                 + flow_timber_node6node10_t4
                                 + flow_timber_node10node6_t4 <= 0
 Constraint_timberflow_enforcing_road_node6node9_4: - 15 C_timber_node6node9_t4
                                 - 15 C_wide_node6node9_t4
                                 - 15 M_timber_node6node9_t4
                                 - 15 M_wide_node6node9_t4 - 15 U_node6node9_t4
                                 + flow_timber_node6node9_t4
                                 + flow_timber_node9node6_t4 <= 0
 Constraint_timberflow_enforcing_road_node6node13_4:
                                 - 15 C_timber_node6node13_t4
                                 - 15 C_wide_node6node13_t4
                                 - 15 M_timber_node6node13_t4
                                 - 15 M_wide_node6node13_t4
                                 - 15 U_node6node13_t4
                                 + flow_timber_node6node13_t4
                                 + flow_timber_node13node6_t4 <= 0
 Constraint_timberflow_enforcing_road_node6node14_4:
                                 - 15 C_timber_node6node14_t4
                                 - 15 C_wide_node6node14_t4
                                 - 15 M_timber_node6node14_t4
                                 - 15 M_wide_node6node14_t4
                                 - 15 U_node6node14_t4
                                 + flow_timber_node6node14_t4
                                 + flow_timber_node14node6_t4 <= 0
 Constraint_timberflow_enforcing_road_node7node10_4:
                                 - 15 C_timber_node7node10_t4
                                 - 15 C_wide_node7node10_t4
                                 - 15 M_timber_node7node10_t4
                                 - 15 M_wide_node7node10_t4
                                 - 15 U_node7node10_t4
                                 + flow_timber_node7node10_t4
                                 + flow_timber_node10node7_t4 <= 0
 Constraint_timberflow_enforcing_road_node7node8_4: - 15 C_timber_node7node8_t4
                                 - 15 C_wide_node7node8_t4
                                 - 15 M_timber_node7node8_t4
                                 - 15 M_wide_node7node8_t4 - 15 U_node7node8_t4
                                 + flow_timber_node7node8_t4
                                 + flow_timber_node8node7_t4 <= 0
 Constraint_timberflow_enforcing_road_node7node12_4:
                                 - 15 C_timber_node7node12_t4
                                 - 15 C_wide_node7node12_t4
                                 - 15 M_timber_node7node12_t4
                                 - 15 M_wide_node7node12_t4
                                 - 15 U_node7node12_t4
                                 + flow_timber_node7node12_t4
                                 + flow_timber_node12node7_t4 <= 0
 Constraint_timberflow_enforcing_road_node7node13_4:
                                 - 15 C_timber_node7node13_t4
                                 - 15 C_wide_node7node13_t4
                                 - 15 M_timber_node7node13_t4
                                 - 15 M_wide_node7node13_t4
                                 - 15 U_node7node13_t4
                                 + flow_timber_node7node13_t4
                                 + flow_timber_node13node7_t4 <= 0
 Constraint_timberflow_enforcing_road_node8node12_4:
                                 - 15 C_timber_node8node12_t4
                                 - 15 C_wide_node8node12_t4
                                 - 15 M_timber_node8node12_t4
                                 - 15 M_wide_node8node12_t4
                                 - 15 U_node8node12_t4
                                 + flow_timber_node12node8_t4
                                 + flow_timber_node8node12_t4 <= 0
 Constraint_timberflow_enforcing_road_node8node13_4:
                                 - 15 C_timber_node8node13_t4
                                 - 15 C_wide_node8node13_t4
                                 - 15 M_timber_node8node13_t4
                                 - 15 M_wide_node8node13_t4
                                 - 15 U_node8node13_t4
                                 + flow_timber_node8node13_t4
                                 + flow_timber_node13node8_t4 <= 0
 Constraint_timberflow_enforcing_road_node9node11_4:
                                 - 15 C_timber_node9node11_t4
                                 - 15 C_wide_node9node11_t4
                                 - 15 M_timber_node9node11_t4
                                 - 15 M_wide_node9node11_t4
                                 - 15 U_node9node11_t4
                                 + flow_timber_node11node9_t4
                                 + flow_timber_node9node11_t4 <= 0
 Constraint_timberflow_enforcing_road_node9node14_4:
                                 - 15 C_timber_node9node14_t4
                                 - 15 C_wide_node9node14_t4
                                 - 15 M_timber_node9node14_t4
                                 - 15 M_wide_node9node14_t4
                                 - 15 U_node9node14_t4
                                 + flow_timber_node14node9_t4
                                 + flow_timber_node9node14_t4 <= 0
 Constraint_timberflow_enforcing_road_node10node13_4:
                                 - 15 C_timber_node10node13_t4
                                 - 15 C_wide_node10node13_t4
                                 - 15 M_timber_node10node13_t4
                                 - 15 M_wide_node10node13_t4
                                 - 15 U_node10node13_t4
                                 + flow_timber_node13node10_t4
                                 + flow_timber_node10node13_t4 <= 0
 Constraint_timberflow_enforcing_road_node11node14_4:
                                 - 15 C_timber_node11node14_t4
                                 - 15 C_wide_node11node14_t4
                                 - 15 M_timber_node11node14_t4
                                 - 15 M_wide_node11node14_t4
                                 - 15 U_node11node14_t4
                                 + flow_timber_node11node14_t4
                                 + flow_timber_node14node11_t4 <= 0
 Constraint_timberflow_enforcing_road_node1node3_5: - 15 C_timber_node1node3_t5
                                 - 15 C_wide_node1node3_t5
                                 - 15 M_timber_node1node3_t5
                                 - 15 M_wide_node1node3_t5 - 15 U_node1node3_t5
                                 + flow_timber_node1node3_t5
                                 + flow_timber_node3node1_t5 <= 0
 Constraint_timberflow_enforcing_road_node1node2_5: - 15 C_timber_node1node2_t5
                                 - 15 C_wide_node1node2_t5
                                 - 15 M_timber_node1node2_t5
                                 - 15 M_wide_node1node2_t5 - 15 U_node1node2_t5
                                 + flow_timber_node1node2_t5
                                 + flow_timber_node2node1_t5 <= 0
 Constraint_timberflow_enforcing_road_node1node7_5: - 15 C_timber_node1node7_t5
                                 - 15 C_wide_node1node7_t5
                                 - 15 M_timber_node1node7_t5
                                 - 15 M_wide_node1node7_t5 - 15 U_node1node7_t5
                                 + flow_timber_node1node7_t5
                                 + flow_timber_node7node1_t5 <= 0
 Constraint_timberflow_enforcing_road_node1node12_5:
                                 - 15 C_timber_node1node12_t5
                                 - 15 C_wide_node1node12_t5
                                 - 15 M_timber_node1node12_t5
                                 - 15 M_wide_node1node12_t5
                                 - 15 U_node1node12_t5
                                 + flow_timber_node1node12_t5
                                 + flow_timber_node12node1_t5 <= 0
 Constraint_timberflow_enforcing_road_node1node15_5:
                                 - 15 C_timber_node1node15_t5
                                 - 15 C_wide_node1node15_t5
                                 - 15 M_timber_node1node15_t5
                                 - 15 M_wide_node1node15_t5
                                 - 15 U_node1node15_t5
                                 + flow_timber_node1node15_t5
                                 + flow_timber_node15node1_t5 <= 0
 Constraint_timberflow_enforcing_road_node2node3_5: - 15 C_timber_node2node3_t5
                                 - 15 C_wide_node2node3_t5
                                 - 15 M_timber_node2node3_t5
                                 - 15 M_wide_node2node3_t5 - 15 U_node2node3_t5
                                 + flow_timber_node3node2_t5
                                 + flow_timber_node2node3_t5 <= 0
 Constraint_timberflow_enforcing_road_node2node12_5:
                                 - 15 C_timber_node2node12_t5
                                 - 15 C_wide_node2node12_t5
                                 - 15 M_timber_node2node12_t5
                                 - 15 M_wide_node2node12_t5
                                 - 15 U_node2node12_t5
                                 + flow_timber_node2node12_t5
                                 + flow_timber_node12node2_t5 <= 0
 Constraint_timberflow_enforcing_road_node2node15_5:
                                 - 15 C_timber_node2node15_t5
                                 - 15 C_wide_node2node15_t5
                                 - 15 M_timber_node2node15_t5
                                 - 15 M_wide_node2node15_t5
                                 - 15 U_node2node15_t5
                                 + flow_timber_node2node15_t5
                                 + flow_timber_node15node2_t5 <= 0
 Constraint_timberflow_enforcing_road_node3node8_5: - 15 C_timber_node3node8_t5
                                 - 15 C_wide_node3node8_t5
                                 - 15 M_timber_node3node8_t5
                                 - 15 M_wide_node3node8_t5 - 15 U_node3node8_t5
                                 + flow_timber_node3node8_t5
                                 + flow_timber_node8node3_t5 <= 0
 Constraint_timberflow_enforcing_road_node3node12_5:
                                 - 15 C_timber_node3node12_t5
                                 - 15 C_wide_node3node12_t5
                                 - 15 M_timber_node3node12_t5
                                 - 15 M_wide_node3node12_t5
                                 - 15 U_node3node12_t5
                                 + flow_timber_node3node12_t5
                                 + flow_timber_node12node3_t5 <= 0
 Constraint_timberflow_enforcing_road_node3node15_5:
                                 - 15 C_timber_node3node15_t5
                                 - 15 C_wide_node3node15_t5
                                 - 15 M_timber_node3node15_t5
                                 - 15 M_wide_node3node15_t5
                                 - 15 U_node3node15_t5
                                 + flow_timber_node3node15_t5
                                 + flow_timber_node15node3_t5 <= 0
 Constraint_timberflow_enforcing_road_node4node5_5: - 15 C_timber_node4node5_t5
                                 - 15 C_wide_node4node5_t5
                                 - 15 M_timber_node4node5_t5
                                 - 15 M_wide_node4node5_t5 - 15 U_node4node5_t5
                                 + flow_timber_node4node5_t5
                                 + flow_timber_node5node4_t5 <= 0
 Constraint_timberflow_enforcing_road_node4node11_5:
                                 - 15 C_timber_node4node11_t5
                                 - 15 C_wide_node4node11_t5
                                 - 15 M_timber_node4node11_t5
                                 - 15 M_wide_node4node11_t5
                                 - 15 U_node4node11_t5
                                 + flow_timber_node4node11_t5
                                 + flow_timber_node11node4_t5 <= 0
 Constraint_timberflow_enforcing_road_node4node6_5: - 15 C_timber_node4node6_t5
                                 - 15 C_wide_node4node6_t5
                                 - 15 M_timber_node4node6_t5
                                 - 15 M_wide_node4node6_t5 - 15 U_node4node6_t5
                                 + flow_timber_node4node6_t5
                                 + flow_timber_node6node4_t5 <= 0
 Constraint_timberflow_enforcing_road_node4node13_5:
                                 - 15 C_timber_node4node13_t5
                                 - 15 C_wide_node4node13_t5
                                 - 15 M_timber_node4node13_t5
                                 - 15 M_wide_node4node13_t5
                                 - 15 U_node4node13_t5
                                 + flow_timber_node4node13_t5
                                 + flow_timber_node13node4_t5 <= 0
 Constraint_timberflow_enforcing_road_node4node14_5:
                                 - 15 C_timber_node4node14_t5
                                 - 15 C_wide_node4node14_t5
                                 - 15 M_timber_node4node14_t5
                                 - 15 M_wide_node4node14_t5
                                 - 15 U_node4node14_t5
                                 + flow_timber_node4node14_t5
                                 + flow_timber_node14node4_t5 <= 0
 Constraint_timberflow_enforcing_road_node5node8_5: - 15 C_timber_node5node8_t5
                                 - 15 C_wide_node5node8_t5
                                 - 15 M_timber_node5node8_t5
                                 - 15 M_wide_node5node8_t5 - 15 U_node5node8_t5
                                 + flow_timber_node8node5_t5
                                 + flow_timber_node5node8_t5 <= 0
 Constraint_timberflow_enforcing_road_node5node13_5:
                                 - 15 C_timber_node5node13_t5
                                 - 15 C_wide_node5node13_t5
                                 - 15 M_timber_node5node13_t5
                                 - 15 M_wide_node5node13_t5
                                 - 15 U_node5node13_t5
                                 + flow_timber_node5node13_t5
                                 + flow_timber_node13node5_t5 <= 0
 Constraint_timberflow_enforcing_road_node6node10_5:
                                 - 15 C_timber_node6node10_t5
                                 - 15 C_wide_node6node10_t5
                                 - 15 M_timber_node6node10_t5
                                 - 15 M_wide_node6node10_t5
                                 - 15 U_node6node10_t5
                                 + flow_timber_node6node10_t5
                                 + flow_timber_node10node6_t5 <= 0
 Constraint_timberflow_enforcing_road_node6node9_5: - 15 C_timber_node6node9_t5
                                 - 15 C_wide_node6node9_t5
                                 - 15 M_timber_node6node9_t5
                                 - 15 M_wide_node6node9_t5 - 15 U_node6node9_t5
                                 + flow_timber_node6node9_t5
                                 + flow_timber_node9node6_t5 <= 0
 Constraint_timberflow_enforcing_road_node6node13_5:
                                 - 15 C_timber_node6node13_t5
                                 - 15 C_wide_node6node13_t5
                                 - 15 M_timber_node6node13_t5
                                 - 15 M_wide_node6node13_t5
                                 - 15 U_node6node13_t5
                                 + flow_timber_node6node13_t5
                                 + flow_timber_node13node6_t5 <= 0
 Constraint_timberflow_enforcing_road_node6node14_5:
                                 - 15 C_timber_node6node14_t5
                                 - 15 C_wide_node6node14_t5
                                 - 15 M_timber_node6node14_t5
                                 - 15 M_wide_node6node14_t5
                                 - 15 U_node6node14_t5
                                 + flow_timber_node6node14_t5
                                 + flow_timber_node14node6_t5 <= 0
 Constraint_timberflow_enforcing_road_node7node10_5:
                                 - 15 C_timber_node7node10_t5
                                 - 15 C_wide_node7node10_t5
                                 - 15 M_timber_node7node10_t5
                                 - 15 M_wide_node7node10_t5
                                 - 15 U_node7node10_t5
                                 + flow_timber_node7node10_t5
                                 + flow_timber_node10node7_t5 <= 0
 Constraint_timberflow_enforcing_road_node7node8_5: - 15 C_timber_node7node8_t5
                                 - 15 C_wide_node7node8_t5
                                 - 15 M_timber_node7node8_t5
                                 - 15 M_wide_node7node8_t5 - 15 U_node7node8_t5
                                 + flow_timber_node7node8_t5
                                 + flow_timber_node8node7_t5 <= 0
 Constraint_timberflow_enforcing_road_node7node12_5:
                                 - 15 C_timber_node7node12_t5
                                 - 15 C_wide_node7node12_t5
                                 - 15 M_timber_node7node12_t5
                                 - 15 M_wide_node7node12_t5
                                 - 15 U_node7node12_t5
                                 + flow_timber_node7node12_t5
                                 + flow_timber_node12node7_t5 <= 0
 Constraint_timberflow_enforcing_road_node7node13_5:
                                 - 15 C_timber_node7node13_t5
                                 - 15 C_wide_node7node13_t5
                                 - 15 M_timber_node7node13_t5
                                 - 15 M_wide_node7node13_t5
                                 - 15 U_node7node13_t5
                                 + flow_timber_node7node13_t5
                                 + flow_timber_node13node7_t5 <= 0
 Constraint_timberflow_enforcing_road_node8node12_5:
                                 - 15 C_timber_node8node12_t5
                                 - 15 C_wide_node8node12_t5
                                 - 15 M_timber_node8node12_t5
                                 - 15 M_wide_node8node12_t5
                                 - 15 U_node8node12_t5
                                 + flow_timber_node12node8_t5
                                 + flow_timber_node8node12_t5 <= 0
 Constraint_timberflow_enforcing_road_node8node13_5:
                                 - 15 C_timber_node8node13_t5
                                 - 15 C_wide_node8node13_t5
                                 - 15 M_timber_node8node13_t5
                                 - 15 M_wide_node8node13_t5
                                 - 15 U_node8node13_t5
                                 + flow_timber_node8node13_t5
                                 + flow_timber_node13node8_t5 <= 0
 Constraint_timberflow_enforcing_road_node9node11_5:
                                 - 15 C_timber_node9node11_t5
                                 - 15 C_wide_node9node11_t5
                                 - 15 M_timber_node9node11_t5
                                 - 15 M_wide_node9node11_t5
                                 - 15 U_node9node11_t5
                                 + flow_timber_node11node9_t5
                                 + flow_timber_node9node11_t5 <= 0
 Constraint_timberflow_enforcing_road_node9node14_5:
                                 - 15 C_timber_node9node14_t5
                                 - 15 C_wide_node9node14_t5
                                 - 15 M_timber_node9node14_t5
                                 - 15 M_wide_node9node14_t5
                                 - 15 U_node9node14_t5
                                 + flow_timber_node14node9_t5
                                 + flow_timber_node9node14_t5 <= 0
 Constraint_timberflow_enforcing_road_node10node13_5:
                                 - 15 C_timber_node10node13_t5
                                 - 15 C_wide_node10node13_t5
                                 - 15 M_timber_node10node13_t5
                                 - 15 M_wide_node10node13_t5
                                 - 15 U_node10node13_t5
                                 + flow_timber_node13node10_t5
                                 + flow_timber_node10node13_t5 <= 0
 Constraint_timberflow_enforcing_road_node11node14_5:
                                 - 15 C_timber_node11node14_t5
                                 - 15 C_wide_node11node14_t5
                                 - 15 M_timber_node11node14_t5
                                 - 15 M_wide_node11node14_t5
                                 - 15 U_node11node14_t5
                                 + flow_timber_node11node14_t5
                                 + flow_timber_node14node11_t5 <= 0
 Constraint_flow_conservation_timber_1_node4: - flow_timber_node4node5_t1
                                 - flow_timber_node4node11_t1
                                 - flow_timber_node4node6_t1
                                 - flow_timber_node4node13_t1
                                 - flow_timber_node4node14_t1
                                 + flow_timber_node5node4_t1
                                 + flow_timber_node11node4_t1
                                 + flow_timber_node6node4_t1
                                 + flow_timber_node13node4_t1
                                 + flow_timber_node14node4_t1  = 0
 Constraint_flow_conservation_timber_1_node3: flow_timber_node1node3_t1
                                 - flow_timber_node3node1_t1
                                 - flow_timber_node3node2_t1
                                 - flow_timber_node3node8_t1
                                 - flow_timber_node3node12_t1
                                 - flow_timber_node3node15_t1
                                 + flow_timber_node2node3_t1
                                 + flow_timber_node12node3_t1
                                 + flow_timber_node15node3_t1
                                 + flow_timber_node8node3_t1  = 0
 Constraint_flow_conservation_timber_1_node7: flow_timber_node1node7_t1
                                 - flow_timber_node7node1_t1
                                 - flow_timber_node7node10_t1
                                 - flow_timber_node7node8_t1
                                 - flow_timber_node7node12_t1
                                 - flow_timber_node7node13_t1
                                 + flow_timber_node12node7_t1
                                 + flow_timber_node8node7_t1
                                 + flow_timber_node13node7_t1
                                 + flow_timber_node10node7_t1  = 0
 Constraint_flow_conservation_timber_1_node6: flow_timber_node4node6_t1
                                 - flow_timber_node6node4_t1
                                 - flow_timber_node6node10_t1
                                 - flow_timber_node6node9_t1
                                 - flow_timber_node6node13_t1
                                 - flow_timber_node6node14_t1
                                 + flow_timber_node13node6_t1
                                 + flow_timber_node14node6_t1
                                 + flow_timber_node10node6_t1
                                 + flow_timber_node9node6_t1  = 0
 Constraint_flow_conservation_timber_1_node1: - flow_timber_node1node3_t1
                                 - flow_timber_node1node2_t1
                                 - flow_timber_node1node7_t1
                                 - flow_timber_node1node12_t1
                                 - flow_timber_node1node15_t1
                                 + flow_timber_node3node1_t1
                                 + flow_timber_node2node1_t1
                                 + flow_timber_node7node1_t1
                                 + flow_timber_node12node1_t1
                                 + flow_timber_node15node1_t1  = 0
 Constraint_flow_conservation_timber_1_node8: flow_timber_node3node8_t1
                                 + flow_timber_node7node8_t1
                                 + flow_timber_node12node8_t1
                                 - flow_timber_node8node3_t1
                                 - flow_timber_node8node5_t1
                                 - flow_timber_node8node7_t1
                                 - flow_timber_node8node12_t1
                                 - flow_timber_node8node13_t1
                                 + flow_timber_node5node8_t1
                                 + flow_timber_node13node8_t1  = 0
 Constraint_flow_conservation_timber_1_node2: flow_timber_node1node2_t1
                                 + flow_timber_node3node2_t1
                                 - flow_timber_node2node1_t1
                                 - flow_timber_node2node3_t1
                                 - flow_timber_node2node12_t1
                                 - flow_timber_node2node15_t1
                                 + flow_timber_node12node2_t1
                                 + flow_timber_node15node2_t1  = 0
 Constraint_flow_conservation_timber_2_node4: - flow_timber_node4node5_t2
                                 - flow_timber_node4node11_t2
                                 - flow_timber_node4node6_t2
                                 - flow_timber_node4node13_t2
                                 - flow_timber_node4node14_t2
                                 + flow_timber_node5node4_t2
                                 + flow_timber_node11node4_t2
                                 + flow_timber_node6node4_t2
                                 + flow_timber_node13node4_t2
                                 + flow_timber_node14node4_t2  = 0
 Constraint_flow_conservation_timber_2_node3: flow_timber_node1node3_t2
                                 - flow_timber_node3node1_t2
                                 - flow_timber_node3node2_t2
                                 - flow_timber_node3node8_t2
                                 - flow_timber_node3node12_t2
                                 - flow_timber_node3node15_t2
                                 + flow_timber_node2node3_t2
                                 + flow_timber_node12node3_t2
                                 + flow_timber_node15node3_t2
                                 + flow_timber_node8node3_t2  = 0
 Constraint_flow_conservation_timber_2_node7: flow_timber_node1node7_t2
                                 - flow_timber_node7node1_t2
                                 - flow_timber_node7node10_t2
                                 - flow_timber_node7node8_t2
                                 - flow_timber_node7node12_t2
                                 - flow_timber_node7node13_t2
                                 + flow_timber_node12node7_t2
                                 + flow_timber_node8node7_t2
                                 + flow_timber_node13node7_t2
                                 + flow_timber_node10node7_t2  = 0
 Constraint_flow_conservation_timber_2_node6: flow_timber_node4node6_t2
                                 - flow_timber_node6node4_t2
                                 - flow_timber_node6node10_t2
                                 - flow_timber_node6node9_t2
                                 - flow_timber_node6node13_t2
                                 - flow_timber_node6node14_t2
                                 + flow_timber_node13node6_t2
                                 + flow_timber_node14node6_t2
                                 + flow_timber_node10node6_t2
                                 + flow_timber_node9node6_t2  = 0
 Constraint_flow_conservation_timber_2_node1: - flow_timber_node1node3_t2
                                 - flow_timber_node1node2_t2
                                 - flow_timber_node1node7_t2
                                 - flow_timber_node1node12_t2
                                 - flow_timber_node1node15_t2
                                 + flow_timber_node3node1_t2
                                 + flow_timber_node2node1_t2
                                 + flow_timber_node7node1_t2
                                 + flow_timber_node12node1_t2
                                 + flow_timber_node15node1_t2  = 0
 Constraint_flow_conservation_timber_2_node8: flow_timber_node3node8_t2
                                 + flow_timber_node7node8_t2
                                 + flow_timber_node12node8_t2
                                 - flow_timber_node8node3_t2
                                 - flow_timber_node8node5_t2
                                 - flow_timber_node8node7_t2
                                 - flow_timber_node8node12_t2
                                 - flow_timber_node8node13_t2
                                 + flow_timber_node5node8_t2
                                 + flow_timber_node13node8_t2  = 0
 Constraint_flow_conservation_timber_2_node2: flow_timber_node1node2_t2
                                 + flow_timber_node3node2_t2
                                 - flow_timber_node2node1_t2
                                 - flow_timber_node2node3_t2
                                 - flow_timber_node2node12_t2
                                 - flow_timber_node2node15_t2
                                 + flow_timber_node12node2_t2
                                 + flow_timber_node15node2_t2  = 0
 Constraint_flow_conservation_timber_3_node4: - flow_timber_node4node5_t3
                                 - flow_timber_node4node11_t3
                                 - flow_timber_node4node6_t3
                                 - flow_timber_node4node13_t3
                                 - flow_timber_node4node14_t3
                                 + flow_timber_node5node4_t3
                                 + flow_timber_node11node4_t3
                                 + flow_timber_node6node4_t3
                                 + flow_timber_node13node4_t3
                                 + flow_timber_node14node4_t3  = 0
 Constraint_flow_conservation_timber_3_node3: flow_timber_node1node3_t3
                                 - flow_timber_node3node1_t3
                                 - flow_timber_node3node2_t3
                                 - flow_timber_node3node8_t3
                                 - flow_timber_node3node12_t3
                                 - flow_timber_node3node15_t3
                                 + flow_timber_node2node3_t3
                                 + flow_timber_node12node3_t3
                                 + flow_timber_node15node3_t3
                                 + flow_timber_node8node3_t3  = 0
 Constraint_flow_conservation_timber_3_node7: flow_timber_node1node7_t3
                                 - flow_timber_node7node1_t3
                                 - flow_timber_node7node10_t3
                                 - flow_timber_node7node8_t3
                                 - flow_timber_node7node12_t3
                                 - flow_timber_node7node13_t3
                                 + flow_timber_node12node7_t3
                                 + flow_timber_node8node7_t3
                                 + flow_timber_node13node7_t3
                                 + flow_timber_node10node7_t3  = 0
 Constraint_flow_conservation_timber_3_node6: flow_timber_node4node6_t3
                                 - flow_timber_node6node4_t3
                                 - flow_timber_node6node10_t3
                                 - flow_timber_node6node9_t3
                                 - flow_timber_node6node13_t3
                                 - flow_timber_node6node14_t3
                                 + flow_timber_node13node6_t3
                                 + flow_timber_node14node6_t3
                                 + flow_timber_node10node6_t3
                                 + flow_timber_node9node6_t3  = 0
 Constraint_flow_conservation_timber_3_node1: - flow_timber_node1node3_t3
                                 - flow_timber_node1node2_t3
                                 - flow_timber_node1node7_t3
                                 - flow_timber_node1node12_t3
                                 - flow_timber_node1node15_t3
                                 + flow_timber_node3node1_t3
                                 + flow_timber_node2node1_t3
                                 + flow_timber_node7node1_t3
                                 + flow_timber_node12node1_t3
                                 + flow_timber_node15node1_t3  = 0
 Constraint_flow_conservation_timber_3_node8: flow_timber_node3node8_t3
                                 + flow_timber_node7node8_t3
                                 + flow_timber_node12node8_t3
                                 - flow_timber_node8node3_t3
                                 - flow_timber_node8node5_t3
                                 - flow_timber_node8node7_t3
                                 - flow_timber_node8node12_t3
                                 - flow_timber_node8node13_t3
                                 + flow_timber_node5node8_t3
                                 + flow_timber_node13node8_t3  = 0
 Constraint_flow_conservation_timber_3_node2: flow_timber_node1node2_t3
                                 + flow_timber_node3node2_t3
                                 - flow_timber_node2node1_t3
                                 - flow_timber_node2node3_t3
                                 - flow_timber_node2node12_t3
                                 - flow_timber_node2node15_t3
                                 + flow_timber_node12node2_t3
                                 + flow_timber_node15node2_t3  = 0
 Constraint_flow_conservation_timber_4_node4: - flow_timber_node4node5_t4
                                 - flow_timber_node4node11_t4
                                 - flow_timber_node4node6_t4
                                 - flow_timber_node4node13_t4
                                 - flow_timber_node4node14_t4
                                 + flow_timber_node5node4_t4
                                 + flow_timber_node11node4_t4
                                 + flow_timber_node6node4_t4
                                 + flow_timber_node13node4_t4
                                 + flow_timber_node14node4_t4  = 0
 Constraint_flow_conservation_timber_4_node3: flow_timber_node1node3_t4
                                 - flow_timber_node3node1_t4
                                 - flow_timber_node3node2_t4
                                 - flow_timber_node3node8_t4
                                 - flow_timber_node3node12_t4
                                 - flow_timber_node3node15_t4
                                 + flow_timber_node2node3_t4
                                 + flow_timber_node12node3_t4
                                 + flow_timber_node15node3_t4
                                 + flow_timber_node8node3_t4  = 0
 Constraint_flow_conservation_timber_4_node7: flow_timber_node1node7_t4
                                 - flow_timber_node7node1_t4
                                 - flow_timber_node7node10_t4
                                 - flow_timber_node7node8_t4
                                 - flow_timber_node7node12_t4
                                 - flow_timber_node7node13_t4
                                 + flow_timber_node12node7_t4
                                 + flow_timber_node8node7_t4
                                 + flow_timber_node13node7_t4
                                 + flow_timber_node10node7_t4  = 0
 Constraint_flow_conservation_timber_4_node6: flow_timber_node4node6_t4
                                 - flow_timber_node6node4_t4
                                 - flow_timber_node6node10_t4
                                 - flow_timber_node6node9_t4
                                 - flow_timber_node6node13_t4
                                 - flow_timber_node6node14_t4
                                 + flow_timber_node13node6_t4
                                 + flow_timber_node14node6_t4
                                 + flow_timber_node10node6_t4
                                 + flow_timber_node9node6_t4  = 0
 Constraint_flow_conservation_timber_4_node1: - flow_timber_node1node3_t4
                                 - flow_timber_node1node2_t4
                                 - flow_timber_node1node7_t4
                                 - flow_timber_node1node12_t4
                                 - flow_timber_node1node15_t4
                                 + flow_timber_node3node1_t4
                                 + flow_timber_node2node1_t4
                                 + flow_timber_node7node1_t4
                                 + flow_timber_node12node1_t4
                                 + flow_timber_node15node1_t4  = 0
 Constraint_flow_conservation_timber_4_node8: flow_timber_node3node8_t4
                                 + flow_timber_node7node8_t4
                                 + flow_timber_node12node8_t4
                                 - flow_timber_node8node3_t4
                                 - flow_timber_node8node5_t4
                                 - flow_timber_node8node7_t4
                                 - flow_timber_node8node12_t4
                                 - flow_timber_node8node13_t4
                                 + flow_timber_node5node8_t4
                                 + flow_timber_node13node8_t4  = 0
 Constraint_flow_conservation_timber_4_node2: flow_timber_node1node2_t4
                                 + flow_timber_node3node2_t4
                                 - flow_timber_node2node1_t4
                                 - flow_timber_node2node3_t4
                                 - flow_timber_node2node12_t4
                                 - flow_timber_node2node15_t4
                                 + flow_timber_node12node2_t4
                                 + flow_timber_node15node2_t4  = 0
 Constraint_flow_conservation_timber_5_node4: - flow_timber_node4node5_t5
                                 - flow_timber_node4node11_t5
                                 - flow_timber_node4node6_t5
                                 - flow_timber_node4node13_t5
                                 - flow_timber_node4node14_t5
                                 + flow_timber_node5node4_t5
                                 + flow_timber_node11node4_t5
                                 + flow_timber_node6node4_t5
                                 + flow_timber_node13node4_t5
                                 + flow_timber_node14node4_t5  = 0
 Constraint_flow_conservation_timber_5_node3: flow_timber_node1node3_t5
                                 - flow_timber_node3node1_t5
                                 - flow_timber_node3node2_t5
                                 - flow_timber_node3node8_t5
                                 - flow_timber_node3node12_t5
                                 - flow_timber_node3node15_t5
                                 + flow_timber_node2node3_t5
                                 + flow_timber_node12node3_t5
                                 + flow_timber_node15node3_t5
                                 + flow_timber_node8node3_t5  = 0
 Constraint_flow_conservation_timber_5_node7: flow_timber_node1node7_t5
                                 - flow_timber_node7node1_t5
                                 - flow_timber_node7node10_t5
                                 - flow_timber_node7node8_t5
                                 - flow_timber_node7node12_t5
                                 - flow_timber_node7node13_t5
                                 + flow_timber_node12node7_t5
                                 + flow_timber_node8node7_t5
                                 + flow_timber_node13node7_t5
                                 + flow_timber_node10node7_t5  = 0
 Constraint_flow_conservation_timber_5_node6: flow_timber_node4node6_t5
                                 - flow_timber_node6node4_t5
                                 - flow_timber_node6node10_t5
                                 - flow_timber_node6node9_t5
                                 - flow_timber_node6node13_t5
                                 - flow_timber_node6node14_t5
                                 + flow_timber_node13node6_t5
                                 + flow_timber_node14node6_t5
                                 + flow_timber_node10node6_t5
                                 + flow_timber_node9node6_t5  = 0
 Constraint_flow_conservation_timber_5_node1: - flow_timber_node1node3_t5
                                 - flow_timber_node1node2_t5
                                 - flow_timber_node1node7_t5
                                 - flow_timber_node1node12_t5
                                 - flow_timber_node1node15_t5
                                 + flow_timber_node3node1_t5
                                 + flow_timber_node2node1_t5
                                 + flow_timber_node7node1_t5
                                 + flow_timber_node12node1_t5
                                 + flow_timber_node15node1_t5  = 0
 Constraint_flow_conservation_timber_5_node8: flow_timber_node3node8_t5
                                 + flow_timber_node7node8_t5
                                 + flow_timber_node12node8_t5
                                 - flow_timber_node8node3_t5
                                 - flow_timber_node8node5_t5
                                 - flow_timber_node8node7_t5
                                 - flow_timber_node8node12_t5
                                 - flow_timber_node8node13_t5
                                 + flow_timber_node5node8_t5
                                 + flow_timber_node13node8_t5  = 0
 Constraint_flow_conservation_timber_5_node2: flow_timber_node1node2_t5
                                 + flow_timber_node3node2_t5
                                 - flow_timber_node2node1_t5
                                 - flow_timber_node2node3_t5
                                 - flow_timber_node2node12_t5
                                 - flow_timber_node2node15_t5
                                 + flow_timber_node12node2_t5
                                 + flow_timber_node15node2_t5  = 0
 Constraint_flow_conservation_wide_1_node4: - flow_wide_node4node5_t1
                                 - flow_wide_node4node11_t1
                                 - flow_wide_node4node6_t1
                                 - flow_wide_node4node13_t1
                                 - flow_wide_node4node14_t1
                                 + flow_wide_node5node4_t1
                                 + flow_wide_node11node4_t1
                                 + flow_wide_node6node4_t1
                                 + flow_wide_node13node4_t1
                                 + flow_wide_node14node4_t1  = 0
 Constraint_flow_conservation_wide_1_node3: flow_wide_node1node3_t1
                                 - flow_wide_node3node1_t1
                                 - flow_wide_node3node2_t1
                                 - flow_wide_node3node8_t1
                                 - flow_wide_node3node12_t1
                                 - flow_wide_node3node15_t1
                                 + flow_wide_node2node3_t1
                                 + flow_wide_node12node3_t1
                                 + flow_wide_node15node3_t1
                                 + flow_wide_node8node3_t1  = 0
 Constraint_flow_conservation_wide_1_node7: flow_wide_node1node7_t1
                                 - flow_wide_node7node1_t1
                                 - flow_wide_node7node10_t1
                                 - flow_wide_node7node8_t1
                                 - flow_wide_node7node12_t1
                                 - flow_wide_node7node13_t1
                                 + flow_wide_node12node7_t1
                                 + flow_wide_node8node7_t1
                                 + flow_wide_node13node7_t1
                                 + flow_wide_node10node7_t1  = 0
 Constraint_flow_conservation_wide_1_node6: flow_wide_node4node6_t1
                                 - flow_wide_node6node4_t1
                                 - flow_wide_node6node10_t1
                                 - flow_wide_node6node9_t1
                                 - flow_wide_node6node13_t1
                                 - flow_wide_node6node14_t1
                                 + flow_wide_node13node6_t1
                                 + flow_wide_node14node6_t1
                                 + flow_wide_node10node6_t1
                                 + flow_wide_node9node6_t1  = 0
 Constraint_flow_conservation_wide_1_node1: - flow_wide_node1node3_t1
                                 - flow_wide_node1node2_t1
                                 - flow_wide_node1node7_t1
                                 - flow_wide_node1node12_t1
                                 - flow_wide_node1node15_t1
                                 + flow_wide_node3node1_t1
                                 + flow_wide_node2node1_t1
                                 + flow_wide_node7node1_t1
                                 + flow_wide_node12node1_t1
                                 + flow_wide_node15node1_t1  = 0
 Constraint_flow_conservation_wide_1_node8: flow_wide_node3node8_t1
                                 + flow_wide_node7node8_t1
                                 + flow_wide_node12node8_t1
                                 - flow_wide_node8node3_t1
                                 - flow_wide_node8node5_t1
                                 - flow_wide_node8node7_t1
                                 - flow_wide_node8node12_t1
                                 - flow_wide_node8node13_t1
                                 + flow_wide_node5node8_t1
                                 + flow_wide_node13node8_t1  = 0
 Constraint_flow_conservation_wide_1_node2: flow_wide_node1node2_t1
                                 + flow_wide_node3node2_t1
                                 - flow_wide_node2node1_t1
                                 - flow_wide_node2node3_t1
                                 - flow_wide_node2node12_t1
                                 - flow_wide_node2node15_t1
                                 + flow_wide_node12node2_t1
                                 + flow_wide_node15node2_t1  = 0
 Constraint_flow_conservation_wide_2_node4: - flow_wide_node4node5_t2
                                 - flow_wide_node4node11_t2
                                 - flow_wide_node4node6_t2
                                 - flow_wide_node4node13_t2
                                 - flow_wide_node4node14_t2
                                 + flow_wide_node5node4_t2
                                 + flow_wide_node11node4_t2
                                 + flow_wide_node6node4_t2
                                 + flow_wide_node13node4_t2
                                 + flow_wide_node14node4_t2  = 0
 Constraint_flow_conservation_wide_2_node3: flow_wide_node1node3_t2
                                 - flow_wide_node3node1_t2
                                 - flow_wide_node3node2_t2
                                 - flow_wide_node3node8_t2
                                 - flow_wide_node3node12_t2
                                 - flow_wide_node3node15_t2
                                 + flow_wide_node2node3_t2
                                 + flow_wide_node12node3_t2
                                 + flow_wide_node15node3_t2
                                 + flow_wide_node8node3_t2  = 0
 Constraint_flow_conservation_wide_2_node7: flow_wide_node1node7_t2
                                 - flow_wide_node7node1_t2
                                 - flow_wide_node7node10_t2
                                 - flow_wide_node7node8_t2
                                 - flow_wide_node7node12_t2
                                 - flow_wide_node7node13_t2
                                 + flow_wide_node12node7_t2
                                 + flow_wide_node8node7_t2
                                 + flow_wide_node13node7_t2
                                 + flow_wide_node10node7_t2  = 0
 Constraint_flow_conservation_wide_2_node6: flow_wide_node4node6_t2
                                 - flow_wide_node6node4_t2
                                 - flow_wide_node6node10_t2
                                 - flow_wide_node6node9_t2
                                 - flow_wide_node6node13_t2
                                 - flow_wide_node6node14_t2
                                 + flow_wide_node13node6_t2
                                 + flow_wide_node14node6_t2
                                 + flow_wide_node10node6_t2
                                 + flow_wide_node9node6_t2  = 0
 Constraint_flow_conservation_wide_2_node1: - flow_wide_node1node3_t2
                                 - flow_wide_node1node2_t2
                                 - flow_wide_node1node7_t2
                                 - flow_wide_node1node12_t2
                                 - flow_wide_node1node15_t2
                                 + flow_wide_node3node1_t2
                                 + flow_wide_node2node1_t2
                                 + flow_wide_node7node1_t2
                                 + flow_wide_node12node1_t2
                                 + flow_wide_node15node1_t2  = 0
 Constraint_flow_conservation_wide_2_node8: flow_wide_node3node8_t2
                                 + flow_wide_node7node8_t2
                                 + flow_wide_node12node8_t2
                                 - flow_wide_node8node3_t2
                                 - flow_wide_node8node5_t2
                                 - flow_wide_node8node7_t2
                                 - flow_wide_node8node12_t2
                                 - flow_wide_node8node13_t2
                                 + flow_wide_node5node8_t2
                                 + flow_wide_node13node8_t2  = 0
 Constraint_flow_conservation_wide_2_node2: flow_wide_node1node2_t2
                                 + flow_wide_node3node2_t2
                                 - flow_wide_node2node1_t2
                                 - flow_wide_node2node3_t2
                                 - flow_wide_node2node12_t2
                                 - flow_wide_node2node15_t2
                                 + flow_wide_node12node2_t2
                                 + flow_wide_node15node2_t2  = 0
 Constraint_flow_conservation_wide_3_node4: - flow_wide_node4node5_t3
                                 - flow_wide_node4node11_t3
                                 - flow_wide_node4node6_t3
                                 - flow_wide_node4node13_t3
                                 - flow_wide_node4node14_t3
                                 + flow_wide_node5node4_t3
                                 + flow_wide_node11node4_t3
                                 + flow_wide_node6node4_t3
                                 + flow_wide_node13node4_t3
                                 + flow_wide_node14node4_t3  = 0
 Constraint_flow_conservation_wide_3_node3: flow_wide_node1node3_t3
                                 - flow_wide_node3node1_t3
                                 - flow_wide_node3node2_t3
                                 - flow_wide_node3node8_t3
                                 - flow_wide_node3node12_t3
                                 - flow_wide_node3node15_t3
                                 + flow_wide_node2node3_t3
                                 + flow_wide_node12node3_t3
                                 + flow_wide_node15node3_t3
                                 + flow_wide_node8node3_t3  = 0
 Constraint_flow_conservation_wide_3_node7: flow_wide_node1node7_t3
                                 - flow_wide_node7node1_t3
                                 - flow_wide_node7node10_t3
                                 - flow_wide_node7node8_t3
                                 - flow_wide_node7node12_t3
                                 - flow_wide_node7node13_t3
                                 + flow_wide_node12node7_t3
                                 + flow_wide_node8node7_t3
                                 + flow_wide_node13node7_t3
                                 + flow_wide_node10node7_t3  = 0
 Constraint_flow_conservation_wide_3_node6: flow_wide_node4node6_t3
                                 - flow_wide_node6node4_t3
                                 - flow_wide_node6node10_t3
                                 - flow_wide_node6node9_t3
                                 - flow_wide_node6node13_t3
                                 - flow_wide_node6node14_t3
                                 + flow_wide_node13node6_t3
                                 + flow_wide_node14node6_t3
                                 + flow_wide_node10node6_t3
                                 + flow_wide_node9node6_t3  = 0
 Constraint_flow_conservation_wide_3_node1: - flow_wide_node1node3_t3
                                 - flow_wide_node1node2_t3
                                 - flow_wide_node1node7_t3
                                 - flow_wide_node1node12_t3
                                 - flow_wide_node1node15_t3
                                 + flow_wide_node3node1_t3
                                 + flow_wide_node2node1_t3
                                 + flow_wide_node7node1_t3
                                 + flow_wide_node12node1_t3
                                 + flow_wide_node15node1_t3  = 0
 Constraint_flow_conservation_wide_3_node8: flow_wide_node3node8_t3
                                 + flow_wide_node7node8_t3
                                 + flow_wide_node12node8_t3
                                 - flow_wide_node8node3_t3
                                 - flow_wide_node8node5_t3
                                 - flow_wide_node8node7_t3
                                 - flow_wide_node8node12_t3
                                 - flow_wide_node8node13_t3
                                 + flow_wide_node5node8_t3
                                 + flow_wide_node13node8_t3  = 0
 Constraint_flow_conservation_wide_3_node2: flow_wide_node1node2_t3
                                 + flow_wide_node3node2_t3
                                 - flow_wide_node2node1_t3
                                 - flow_wide_node2node3_t3
                                 - flow_wide_node2node12_t3
                                 - flow_wide_node2node15_t3
                                 + flow_wide_node12node2_t3
                                 + flow_wide_node15node2_t3  = 0
 Constraint_flow_conservation_wide_4_node4: - flow_wide_node4node5_t4
                                 - flow_wide_node4node11_t4
                                 - flow_wide_node4node6_t4
                                 - flow_wide_node4node13_t4
                                 - flow_wide_node4node14_t4
                                 + flow_wide_node5node4_t4
                                 + flow_wide_node11node4_t4
                                 + flow_wide_node6node4_t4
                                 + flow_wide_node13node4_t4
                                 + flow_wide_node14node4_t4  = 0
 Constraint_flow_conservation_wide_4_node3: flow_wide_node1node3_t4
                                 - flow_wide_node3node1_t4
                                 - flow_wide_node3node2_t4
                                 - flow_wide_node3node8_t4
                                 - flow_wide_node3node12_t4
                                 - flow_wide_node3node15_t4
                                 + flow_wide_node2node3_t4
                                 + flow_wide_node12node3_t4
                                 + flow_wide_node15node3_t4
                                 + flow_wide_node8node3_t4  = 0
 Constraint_flow_conservation_wide_4_node7: flow_wide_node1node7_t4
                                 - flow_wide_node7node1_t4
                                 - flow_wide_node7node10_t4
                                 - flow_wide_node7node8_t4
                                 - flow_wide_node7node12_t4
                                 - flow_wide_node7node13_t4
                                 + flow_wide_node12node7_t4
                                 + flow_wide_node8node7_t4
                                 + flow_wide_node13node7_t4
                                 + flow_wide_node10node7_t4  = 0
 Constraint_flow_conservation_wide_4_node6: flow_wide_node4node6_t4
                                 - flow_wide_node6node4_t4
                                 - flow_wide_node6node10_t4
                                 - flow_wide_node6node9_t4
                                 - flow_wide_node6node13_t4
                                 - flow_wide_node6node14_t4
                                 + flow_wide_node13node6_t4
                                 + flow_wide_node14node6_t4
                                 + flow_wide_node10node6_t4
                                 + flow_wide_node9node6_t4  = 0
 Constraint_flow_conservation_wide_4_node1: - flow_wide_node1node3_t4
                                 - flow_wide_node1node2_t4
                                 - flow_wide_node1node7_t4
                                 - flow_wide_node1node12_t4
                                 - flow_wide_node1node15_t4
                                 + flow_wide_node3node1_t4
                                 + flow_wide_node2node1_t4
                                 + flow_wide_node7node1_t4
                                 + flow_wide_node12node1_t4
                                 + flow_wide_node15node1_t4  = 0
 Constraint_flow_conservation_wide_4_node8: flow_wide_node3node8_t4
                                 + flow_wide_node7node8_t4
                                 + flow_wide_node12node8_t4
                                 - flow_wide_node8node3_t4
                                 - flow_wide_node8node5_t4
                                 - flow_wide_node8node7_t4
                                 - flow_wide_node8node12_t4
                                 - flow_wide_node8node13_t4
                                 + flow_wide_node5node8_t4
                                 + flow_wide_node13node8_t4  = 0
 Constraint_flow_conservation_wide_4_node2: flow_wide_node1node2_t4
                                 + flow_wide_node3node2_t4
                                 - flow_wide_node2node1_t4
                                 - flow_wide_node2node3_t4
                                 - flow_wide_node2node12_t4
                                 - flow_wide_node2node15_t4
                                 + flow_wide_node12node2_t4
                                 + flow_wide_node15node2_t4  = 0
 Constraint_flow_conservation_wide_5_node4: - flow_wide_node4node5_t5
                                 - flow_wide_node4node11_t5
                                 - flow_wide_node4node6_t5
                                 - flow_wide_node4node13_t5
                                 - flow_wide_node4node14_t5
                                 + flow_wide_node5node4_t5
                                 + flow_wide_node11node4_t5
                                 + flow_wide_node6node4_t5
                                 + flow_wide_node13node4_t5
                                 + flow_wide_node14node4_t5  = 0
 Constraint_flow_conservation_wide_5_node3: flow_wide_node1node3_t5
                                 - flow_wide_node3node1_t5
                                 - flow_wide_node3node2_t5
                                 - flow_wide_node3node8_t5
                                 - flow_wide_node3node12_t5
                                 - flow_wide_node3node15_t5
                                 + flow_wide_node2node3_t5
                                 + flow_wide_node12node3_t5
                                 + flow_wide_node15node3_t5
                                 + flow_wide_node8node3_t5  = 0
 Constraint_flow_conservation_wide_5_node7: flow_wide_node1node7_t5
                                 - flow_wide_node7node1_t5
                                 - flow_wide_node7node10_t5
                                 - flow_wide_node7node8_t5
                                 - flow_wide_node7node12_t5
                                 - flow_wide_node7node13_t5
                                 + flow_wide_node12node7_t5
                                 + flow_wide_node8node7_t5
                                 + flow_wide_node13node7_t5
                                 + flow_wide_node10node7_t5  = 0
 Constraint_flow_conservation_wide_5_node6: flow_wide_node4node6_t5
                                 - flow_wide_node6node4_t5
                                 - flow_wide_node6node10_t5
                                 - flow_wide_node6node9_t5
                                 - flow_wide_node6node13_t5
                                 - flow_wide_node6node14_t5
                                 + flow_wide_node13node6_t5
                                 + flow_wide_node14node6_t5
                                 + flow_wide_node10node6_t5
                                 + flow_wide_node9node6_t5  = 0
 Constraint_flow_conservation_wide_5_node1: - flow_wide_node1node3_t5
                                 - flow_wide_node1node2_t5
                                 - flow_wide_node1node7_t5
                                 - flow_wide_node1node12_t5
                                 - flow_wide_node1node15_t5
                                 + flow_wide_node3node1_t5
                                 + flow_wide_node2node1_t5
                                 + flow_wide_node7node1_t5
                                 + flow_wide_node12node1_t5
                                 + flow_wide_node15node1_t5  = 0
 Constraint_flow_conservation_wide_5_node8: flow_wide_node3node8_t5
                                 + flow_wide_node7node8_t5
                                 + flow_wide_node12node8_t5
                                 - flow_wide_node8node3_t5
                                 - flow_wide_node8node5_t5
                                 - flow_wide_node8node7_t5
                                 - flow_wide_node8node12_t5
                                 - flow_wide_node8node13_t5
                                 + flow_wide_node5node8_t5
                                 + flow_wide_node13node8_t5  = 0
 Constraint_flow_conservation_wide_5_node2: flow_wide_node1node2_t5
                                 + flow_wide_node3node2_t5
                                 - flow_wide_node2node1_t5
                                 - flow_wide_node2node3_t5
                                 - flow_wide_node2node12_t5
                                 - flow_wide_node2node15_t5
                                 + flow_wide_node12node2_t5
                                 + flow_wide_node15node2_t5  = 0
 Constraint_outflow_iff_needroad_timber_827_t1: flow_timber_node12node1_t1
                                 + flow_timber_node12node2_t1
                                 + flow_timber_node12node3_t1
                                 + flow_timber_node12node7_t1
                                 + flow_timber_node12node8_t1  = 1
 Constraint_outflow_iff_needroad_timber_1403_t1: flow_timber_node13node4_t1
                                 + flow_timber_node13node5_t1
                                 + flow_timber_node13node6_t1
                                 + flow_timber_node13node7_t1
                                 + flow_timber_node13node8_t1
                                 + flow_timber_node13node10_t1  = 0
 Constraint_outflow_iff_needroad_timber_1402_t1: flow_timber_node14node4_t1
                                 + flow_timber_node14node6_t1
                                 + flow_timber_node14node9_t1
                                 + flow_timber_node14node11_t1  = 1
 Constraint_outflow_iff_needroad_timber_824_t1: flow_timber_node15node1_t1
                                 + flow_timber_node15node2_t1
                                 + flow_timber_node15node3_t1  = 1
 Constraint_outflow_iff_needroad_timber_827_t2: flow_timber_node12node1_t2
                                 + flow_timber_node12node2_t2
                                 + flow_timber_node12node3_t2
                                 + flow_timber_node12node7_t2
                                 + flow_timber_node12node8_t2  = 1
 Constraint_outflow_iff_needroad_timber_1403_t2: flow_timber_node13node4_t2
                                 + flow_timber_node13node5_t2
                                 + flow_timber_node13node6_t2
                                 + flow_timber_node13node7_t2
                                 + flow_timber_node13node8_t2
                                 + flow_timber_node13node10_t2  = 0
 Constraint_outflow_iff_needroad_timber_1402_t2: flow_timber_node14node4_t2
                                 + flow_timber_node14node6_t2
                                 + flow_timber_node14node9_t2
                                 + flow_timber_node14node11_t2  = 1
 Constraint_outflow_iff_needroad_timber_824_t2: flow_timber_node15node1_t2
                                 + flow_timber_node15node2_t2
                                 + flow_timber_node15node3_t2  = 1
 Constraint_outflow_iff_needroad_timber_827_t3: flow_timber_node12node1_t3
                                 + flow_timber_node12node2_t3
                                 + flow_timber_node12node3_t3
                                 + flow_timber_node12node7_t3
                                 + flow_timber_node12node8_t3  = 1
 Constraint_outflow_iff_needroad_timber_1403_t3: flow_timber_node13node4_t3
                                 + flow_timber_node13node5_t3
                                 + flow_timber_node13node6_t3
                                 + flow_timber_node13node7_t3
                                 + flow_timber_node13node8_t3
                                 + flow_timber_node13node10_t3  = 0
 Constraint_outflow_iff_needroad_timber_1402_t3: flow_timber_node14node4_t3
                                 + flow_timber_node14node6_t3
                                 + flow_timber_node14node9_t3
                                 + flow_timber_node14node11_t3  = 1
 Constraint_outflow_iff_needroad_timber_824_t3: flow_timber_node15node1_t3
                                 + flow_timber_node15node2_t3
                                 + flow_timber_node15node3_t3  = 1
 Constraint_outflow_iff_needroad_timber_827_t4: flow_timber_node12node1_t4
                                 + flow_timber_node12node2_t4
                                 + flow_timber_node12node3_t4
                                 + flow_timber_node12node7_t4
                                 + flow_timber_node12node8_t4  = 1
 Constraint_outflow_iff_needroad_timber_1403_t4: flow_timber_node13node4_t4
                                 + flow_timber_node13node5_t4
                                 + flow_timber_node13node6_t4
                                 + flow_timber_node13node7_t4
                                 + flow_timber_node13node8_t4
                                 + flow_timber_node13node10_t4  = 0
 Constraint_outflow_iff_needroad_timber_1402_t4: flow_timber_node14node4_t4
                                 + flow_timber_node14node6_t4
                                 + flow_timber_node14node9_t4
                                 + flow_timber_node14node11_t4  = 1
 Constraint_outflow_iff_needroad_timber_824_t4: flow_timber_node15node1_t4
                                 + flow_timber_node15node2_t4
                                 + flow_timber_node15node3_t4  = 1
 Constraint_outflow_iff_needroad_timber_827_t5: flow_timber_node12node1_t5
                                 + flow_timber_node12node2_t5
                                 + flow_timber_node12node3_t5
                                 + flow_timber_node12node7_t5
                                 + flow_timber_node12node8_t5  = 1
 Constraint_outflow_iff_needroad_timber_1403_t5: flow_timber_node13node4_t5
                                 + flow_timber_node13node5_t5
                                 + flow_timber_node13node6_t5
                                 + flow_timber_node13node7_t5
                                 + flow_timber_node13node8_t5
                                 + flow_timber_node13node10_t5  = 0
 Constraint_outflow_iff_needroad_timber_1402_t5: flow_timber_node14node4_t5
                                 + flow_timber_node14node6_t5
                                 + flow_timber_node14node9_t5
                                 + flow_timber_node14node11_t5  = 1
 Constraint_outflow_iff_needroad_timber_824_t5: flow_timber_node15node1_t5
                                 + flow_timber_node15node2_t5
                                 + flow_timber_node15node3_t5  = 1
 Constraint_outflow_iff_needroad_wide_827_t1: flow_wide_node12node1_t1
                                 + flow_wide_node12node2_t1
                                 + flow_wide_node12node3_t1
                                 + flow_wide_node12node7_t1
                                 + flow_wide_node12node8_t1  = 0
 Constraint_outflow_iff_needroad_wide_1403_t1: flow_wide_node13node4_t1
                                 + flow_wide_node13node5_t1
                                 + flow_wide_node13node6_t1
                                 + flow_wide_node13node7_t1
                                 + flow_wide_node13node8_t1
                                 + flow_wide_node13node10_t1  = 0
 Constraint_outflow_iff_needroad_wide_1402_t1: flow_wide_node14node4_t1
                                 + flow_wide_node14node6_t1
                                 + flow_wide_node14node9_t1
                                 + flow_wide_node14node11_t1  = 0
 Constraint_outflow_iff_needroad_wide_824_t1: flow_wide_node15node1_t1
                                 + flow_wide_node15node2_t1
                                 + flow_wide_node15node3_t1  = 0
 Constraint_outflow_iff_needroad_wide_827_t2: flow_wide_node12node1_t2
                                 + flow_wide_node12node2_t2
                                 + flow_wide_node12node3_t2
                                 + flow_wide_node12node7_t2
                                 + flow_wide_node12node8_t2  = 0
 Constraint_outflow_iff_needroad_wide_1403_t2: flow_wide_node13node4_t2
                                 + flow_wide_node13node5_t2
                                 + flow_wide_node13node6_t2
                                 + flow_wide_node13node7_t2
                                 + flow_wide_node13node8_t2
                                 + flow_wide_node13node10_t2  = 0
 Constraint_outflow_iff_needroad_wide_1402_t2: flow_wide_node14node4_t2
                                 + flow_wide_node14node6_t2
                                 + flow_wide_node14node9_t2
                                 + flow_wide_node14node11_t2  = 0
 Constraint_outflow_iff_needroad_wide_824_t2: flow_wide_node15node1_t2
                                 + flow_wide_node15node2_t2
                                 + flow_wide_node15node3_t2  = 0
 Constraint_outflow_iff_needroad_wide_827_t3: flow_wide_node12node1_t3
                                 + flow_wide_node12node2_t3
                                 + flow_wide_node12node3_t3
                                 + flow_wide_node12node7_t3
                                 + flow_wide_node12node8_t3  = 0
 Constraint_outflow_iff_needroad_wide_1403_t3: flow_wide_node13node4_t3
                                 + flow_wide_node13node5_t3
                                 + flow_wide_node13node6_t3
                                 + flow_wide_node13node7_t3
                                 + flow_wide_node13node8_t3
                                 + flow_wide_node13node10_t3  = 0
 Constraint_outflow_iff_needroad_wide_1402_t3: flow_wide_node14node4_t3
                                 + flow_wide_node14node6_t3
                                 + flow_wide_node14node9_t3
                                 + flow_wide_node14node11_t3  = 0
 Constraint_outflow_iff_needroad_wide_824_t3: flow_wide_node15node1_t3
                                 + flow_wide_node15node2_t3
                                 + flow_wide_node15node3_t3  = 0
 Constraint_outflow_iff_needroad_wide_827_t4: flow_wide_node12node1_t4
                                 + flow_wide_node12node2_t4
                                 + flow_wide_node12node3_t4
                                 + flow_wide_node12node7_t4
                                 + flow_wide_node12node8_t4  = 0
 Constraint_outflow_iff_needroad_wide_1403_t4: flow_wide_node13node4_t4
                                 + flow_wide_node13node5_t4
                                 + flow_wide_node13node6_t4
                                 + flow_wide_node13node7_t4
                                 + flow_wide_node13node8_t4
                                 + flow_wide_node13node10_t4  = 0
 Constraint_outflow_iff_needroad_wide_1402_t4: flow_wide_node14node4_t4
                                 + flow_wide_node14node6_t4
                                 + flow_wide_node14node9_t4
                                 + flow_wide_node14node11_t4  = 0
 Constraint_outflow_iff_needroad_wide_824_t4: flow_wide_node15node1_t4
                                 + flow_wide_node15node2_t4
                                 + flow_wide_node15node3_t4  = 0
 Constraint_outflow_iff_needroad_wide_827_t5: flow_wide_node12node1_t5
                                 + flow_wide_node12node2_t5
                                 + flow_wide_node12node3_t5
                                 + flow_wide_node12node7_t5
                                 + flow_wide_node12node8_t5  = 0
 Constraint_outflow_iff_needroad_wide_1403_t5: flow_wide_node13node4_t5
                                 + flow_wide_node13node5_t5
                                 + flow_wide_node13node6_t5
                                 + flow_wide_node13node7_t5
                                 + flow_wide_node13node8_t5
                                 + flow_wide_node13node10_t5  = 0
 Constraint_outflow_iff_needroad_wide_1402_t5: flow_wide_node14node4_t5
                                 + flow_wide_node14node6_t5
                                 + flow_wide_node14node9_t5
                                 + flow_wide_node14node11_t5  = 0
 Constraint_outflow_iff_needroad_wide_824_t5: flow_wide_node15node1_t5
                                 + flow_wide_node15node2_t5
                                 + flow_wide_node15node3_t5  = 0
 Constraint_no_inflow_source_827_1: flow_timber_node1node12_t1
                                 + flow_wide_node1node12_t1
                                 + flow_timber_node3node12_t1
                                 + flow_wide_node3node12_t1
                                 + flow_timber_node2node12_t1
                                 + flow_wide_node2node12_t1
                                 + flow_timber_node7node12_t1
                                 + flow_wide_node7node12_t1
                                 + flow_timber_node8node12_t1
                                 + flow_wide_node8node12_t1  = 0
 Constraint_no_inflow_source_1403_1: flow_timber_node7node13_t1
                                 + flow_wide_node7node13_t1
                                 + flow_timber_node8node13_t1
                                 + flow_wide_node8node13_t1
                                 + flow_timber_node4node13_t1
                                 + flow_wide_node4node13_t1
                                 + flow_timber_node5node13_t1
                                 + flow_wide_node5node13_t1
                                 + flow_timber_node6node13_t1
                                 + flow_wide_node6node13_t1
                                 + flow_timber_node10node13_t1
                                 + flow_wide_node10node13_t1  = 0
 Constraint_no_inflow_source_1402_1: flow_timber_node4node14_t1
                                 + flow_wide_node4node14_t1
                                 + flow_timber_node11node14_t1
                                 + flow_wide_node11node14_t1
                                 + flow_timber_node6node14_t1
                                 + flow_wide_node6node14_t1
                                 + flow_timber_node9node14_t1
                                 + flow_wide_node9node14_t1  = 0
 Constraint_no_inflow_source_824_1: flow_timber_node1node15_t1
                                 + flow_wide_node1node15_t1
                                 + flow_timber_node3node15_t1
                                 + flow_wide_node3node15_t1
                                 + flow_timber_node2node15_t1
                                 + flow_wide_node2node15_t1  = 0
 Constraint_no_inflow_source_827_2: flow_timber_node1node12_t2
                                 + flow_wide_node1node12_t2
                                 + flow_timber_node3node12_t2
                                 + flow_wide_node3node12_t2
                                 + flow_timber_node2node12_t2
                                 + flow_wide_node2node12_t2
                                 + flow_timber_node7node12_t2
                                 + flow_wide_node7node12_t2
                                 + flow_timber_node8node12_t2
                                 + flow_wide_node8node12_t2  = 0
 Constraint_no_inflow_source_1403_2: flow_timber_node7node13_t2
                                 + flow_wide_node7node13_t2
                                 + flow_timber_node8node13_t2
                                 + flow_wide_node8node13_t2
                                 + flow_timber_node4node13_t2
                                 + flow_wide_node4node13_t2
                                 + flow_timber_node5node13_t2
                                 + flow_wide_node5node13_t2
                                 + flow_timber_node6node13_t2
                                 + flow_wide_node6node13_t2
                                 + flow_timber_node10node13_t2
                                 + flow_wide_node10node13_t2  = 0
 Constraint_no_inflow_source_1402_2: flow_timber_node4node14_t2
                                 + flow_wide_node4node14_t2
                                 + flow_timber_node11node14_t2
                                 + flow_wide_node11node14_t2
                                 + flow_timber_node6node14_t2
                                 + flow_wide_node6node14_t2
                                 + flow_timber_node9node14_t2
                                 + flow_wide_node9node14_t2  = 0
 Constraint_no_inflow_source_824_2: flow_timber_node1node15_t2
                                 + flow_wide_node1node15_t2
                                 + flow_timber_node3node15_t2
                                 + flow_wide_node3node15_t2
                                 + flow_timber_node2node15_t2
                                 + flow_wide_node2node15_t2  = 0
 Constraint_no_inflow_source_827_3: flow_timber_node1node12_t3
                                 + flow_wide_node1node12_t3
                                 + flow_timber_node3node12_t3
                                 + flow_wide_node3node12_t3
                                 + flow_timber_node2node12_t3
                                 + flow_wide_node2node12_t3
                                 + flow_timber_node7node12_t3
                                 + flow_wide_node7node12_t3
                                 + flow_timber_node8node12_t3
                                 + flow_wide_node8node12_t3  = 0
 Constraint_no_inflow_source_1403_3: flow_timber_node7node13_t3
                                 + flow_wide_node7node13_t3
                                 + flow_timber_node8node13_t3
                                 + flow_wide_node8node13_t3
                                 + flow_timber_node4node13_t3
                                 + flow_wide_node4node13_t3
                                 + flow_timber_node5node13_t3
                                 + flow_wide_node5node13_t3
                                 + flow_timber_node6node13_t3
                                 + flow_wide_node6node13_t3
                                 + flow_timber_node10node13_t3
                                 + flow_wide_node10node13_t3  = 0
 Constraint_no_inflow_source_1402_3: flow_timber_node4node14_t3
                                 + flow_wide_node4node14_t3
                                 + flow_timber_node11node14_t3
                                 + flow_wide_node11node14_t3
                                 + flow_timber_node6node14_t3
                                 + flow_wide_node6node14_t3
                                 + flow_timber_node9node14_t3
                                 + flow_wide_node9node14_t3  = 0
 Constraint_no_inflow_source_824_3: flow_timber_node1node15_t3
                                 + flow_wide_node1node15_t3
                                 + flow_timber_node3node15_t3
                                 + flow_wide_node3node15_t3
                                 + flow_timber_node2node15_t3
                                 + flow_wide_node2node15_t3  = 0
 Constraint_no_inflow_source_827_4: flow_timber_node1node12_t4
                                 + flow_wide_node1node12_t4
                                 + flow_timber_node3node12_t4
                                 + flow_wide_node3node12_t4
                                 + flow_timber_node2node12_t4
                                 + flow_wide_node2node12_t4
                                 + flow_timber_node7node12_t4
                                 + flow_wide_node7node12_t4
                                 + flow_timber_node8node12_t4
                                 + flow_wide_node8node12_t4  = 0
 Constraint_no_inflow_source_1403_4: flow_timber_node7node13_t4
                                 + flow_wide_node7node13_t4
                                 + flow_timber_node8node13_t4
                                 + flow_wide_node8node13_t4
                                 + flow_timber_node4node13_t4
                                 + flow_wide_node4node13_t4
                                 + flow_timber_node5node13_t4
                                 + flow_wide_node5node13_t4
                                 + flow_timber_node6node13_t4
                                 + flow_wide_node6node13_t4
                                 + flow_timber_node10node13_t4
                                 + flow_wide_node10node13_t4  = 0
 Constraint_no_inflow_source_1402_4: flow_timber_node4node14_t4
                                 + flow_wide_node4node14_t4
                                 + flow_timber_node11node14_t4
                                 + flow_wide_node11node14_t4
                                 + flow_timber_node6node14_t4
                                 + flow_wide_node6node14_t4
                                 + flow_timber_node9node14_t4
                                 + flow_wide_node9node14_t4  = 0
 Constraint_no_inflow_source_824_4: flow_timber_node1node15_t4
                                 + flow_wide_node1node15_t4
                                 + flow_timber_node3node15_t4
                                 + flow_wide_node3node15_t4
                                 + flow_timber_node2node15_t4
                                 + flow_wide_node2node15_t4  = 0
 Constraint_no_inflow_source_827_5: flow_timber_node1node12_t5
                                 + flow_wide_node1node12_t5
                                 + flow_timber_node3node12_t5
                                 + flow_wide_node3node12_t5
                                 + flow_timber_node2node12_t5
                                 + flow_wide_node2node12_t5
                                 + flow_timber_node7node12_t5
                                 + flow_wide_node7node12_t5
                                 + flow_timber_node8node12_t5
                                 + flow_wide_node8node12_t5  = 0
 Constraint_no_inflow_source_1403_5: flow_timber_node7node13_t5
                                 + flow_wide_node7node13_t5
                                 + flow_timber_node8node13_t5
                                 + flow_wide_node8node13_t5
                                 + flow_timber_node4node13_t5
                                 + flow_wide_node4node13_t5
                                 + flow_timber_node5node13_t5
                                 + flow_wide_node5node13_t5
                                 + flow_timber_node6node13_t5
                                 + flow_wide_node6node13_t5
                                 + flow_timber_node10node13_t5
                                 + flow_wide_node10node13_t5  = 0
 Constraint_no_inflow_source_1402_5: flow_timber_node4node14_t5
                                 + flow_wide_node4node14_t5
                                 + flow_timber_node11node14_t5
                                 + flow_wide_node11node14_t5
                                 + flow_timber_node6node14_t5
                                 + flow_wide_node6node14_t5
                                 + flow_timber_node9node14_t5
                                 + flow_wide_node9node14_t5  = 0
 Constraint_no_inflow_source_824_5: flow_timber_node1node15_t5
                                 + flow_wide_node1node15_t5
                                 + flow_timber_node3node15_t5
                                 + flow_wide_node3node15_t5
                                 + flow_timber_node2node15_t5
                                 + flow_wide_node2node15_t5  = 0
 Constraint_maintain_upgrade_timber_node1node3_1: - C_timber_node1node3_t0
                                 - M_timber_node1node3_t0
                                 + M_timber_node1node3_t1 + U_node1node3_t1
                                 <= 0
 Constraint_maintain_upgrade_timber_node1node2_1: - C_timber_node1node2_t0
                                 - M_timber_node1node2_t0
                                 + M_timber_node1node2_t1 + U_node1node2_t1
                                 <= 0
 Constraint_maintain_upgrade_timber_node1node7_1: - C_timber_node1node7_t0
                                 - M_timber_node1node7_t0
                                 + M_timber_node1node7_t1 + U_node1node7_t1
                                 <= 0
 Constraint_maintain_upgrade_timber_node1node12_1: - C_timber_node1node12_t0
                                 - M_timber_node1node12_t0
                                 + M_timber_node1node12_t1 + U_node1node12_t1
                                 <= 0
 Constraint_maintain_upgrade_timber_node1node15_1: - C_timber_node1node15_t0
                                 - M_timber_node1node15_t0
                                 + M_timber_node1node15_t1 + U_node1node15_t1
                                 <= 0
 Constraint_maintain_upgrade_timber_node2node3_1: - C_timber_node2node3_t0
                                 - M_timber_node2node3_t0
                                 + M_timber_node2node3_t1 + U_node2node3_t1
                                 <= 0
 Constraint_maintain_upgrade_timber_node2node12_1: - C_timber_node2node12_t0
                                 - M_timber_node2node12_t0
                                 + M_timber_node2node12_t1 + U_node2node12_t1
                                 <= 0
 Constraint_maintain_upgrade_timber_node2node15_1: - C_timber_node2node15_t0
                                 - M_timber_node2node15_t0
                                 + M_timber_node2node15_t1 + U_node2node15_t1
                                 <= 0
 Constraint_maintain_upgrade_timber_node3node8_1: - C_timber_node3node8_t0
                                 - M_timber_node3node8_t0
                                 + M_timber_node3node8_t1 + U_node3node8_t1
                                 <= 0
 Constraint_maintain_upgrade_timber_node3node12_1: - C_timber_node3node12_t0
                                 - M_timber_node3node12_t0
                                 + M_timber_node3node12_t1 + U_node3node12_t1
                                 <= 0
 Constraint_maintain_upgrade_timber_node3node15_1: - C_timber_node3node15_t0
                                 - M_timber_node3node15_t0
                                 + M_timber_node3node15_t1 + U_node3node15_t1
                                 <= 0
 Constraint_maintain_upgrade_timber_node4node5_1: - C_timber_node4node5_t0
                                 - M_timber_node4node5_t0
                                 + M_timber_node4node5_t1 + U_node4node5_t1
                                 <= 0
 Constraint_maintain_upgrade_timber_node4node11_1: - C_timber_node4node11_t0
                                 - M_timber_node4node11_t0
                                 + M_timber_node4node11_t1 + U_node4node11_t1
                                 <= 0
 Constraint_maintain_upgrade_timber_node4node6_1: - C_timber_node4node6_t0
                                 - M_timber_node4node6_t0
                                 + M_timber_node4node6_t1 + U_node4node6_t1
                                 <= 0
 Constraint_maintain_upgrade_timber_node4node13_1: - C_timber_node4node13_t0
                                 - M_timber_node4node13_t0
                                 + M_timber_node4node13_t1 + U_node4node13_t1
                                 <= 0
 Constraint_maintain_upgrade_timber_node4node14_1: - C_timber_node4node14_t0
                                 - M_timber_node4node14_t0
                                 + M_timber_node4node14_t1 + U_node4node14_t1
                                 <= 0
 Constraint_maintain_upgrade_timber_node5node8_1: - C_timber_node5node8_t0
                                 - M_timber_node5node8_t0
                                 + M_timber_node5node8_t1 + U_node5node8_t1
                                 <= 0
 Constraint_maintain_upgrade_timber_node5node13_1: - C_timber_node5node13_t0
                                 - M_timber_node5node13_t0
                                 + M_timber_node5node13_t1 + U_node5node13_t1
                                 <= 0
 Constraint_maintain_upgrade_timber_node6node10_1: - C_timber_node6node10_t0
                                 - M_timber_node6node10_t0
                                 + M_timber_node6node10_t1 + U_node6node10_t1
                                 <= 0
 Constraint_maintain_upgrade_timber_node6node9_1: - C_timber_node6node9_t0
                                 - M_timber_node6node9_t0
                                 + M_timber_node6node9_t1 + U_node6node9_t1
                                 <= 0
 Constraint_maintain_upgrade_timber_node6node13_1: - C_timber_node6node13_t0
                                 - M_timber_node6node13_t0
                                 + M_timber_node6node13_t1 + U_node6node13_t1
                                 <= 0
 Constraint_maintain_upgrade_timber_node6node14_1: - C_timber_node6node14_t0
                                 - M_timber_node6node14_t0
                                 + M_timber_node6node14_t1 + U_node6node14_t1
                                 <= 0
 Constraint_maintain_upgrade_timber_node7node10_1: - C_timber_node7node10_t0
                                 - M_timber_node7node10_t0
                                 + M_timber_node7node10_t1 + U_node7node10_t1
                                 <= 0
 Constraint_maintain_upgrade_timber_node7node8_1: - C_timber_node7node8_t0
                                 - M_timber_node7node8_t0
                                 + M_timber_node7node8_t1 + U_node7node8_t1
                                 <= 0
 Constraint_maintain_upgrade_timber_node7node12_1: - C_timber_node7node12_t0
                                 - M_timber_node7node12_t0
                                 + M_timber_node7node12_t1 + U_node7node12_t1
                                 <= 0
 Constraint_maintain_upgrade_timber_node7node13_1: - C_timber_node7node13_t0
                                 - M_timber_node7node13_t0
                                 + M_timber_node7node13_t1 + U_node7node13_t1
                                 <= 0
 Constraint_maintain_upgrade_timber_node8node12_1: - C_timber_node8node12_t0
                                 - M_timber_node8node12_t0
                                 + M_timber_node8node12_t1 + U_node8node12_t1
                                 <= 0
 Constraint_maintain_upgrade_timber_node8node13_1: - C_timber_node8node13_t0
                                 - M_timber_node8node13_t0
                                 + M_timber_node8node13_t1 + U_node8node13_t1
                                 <= 0
 Constraint_maintain_upgrade_timber_node9node11_1: - C_timber_node9node11_t0
                                 - M_timber_node9node11_t0
                                 + M_timber_node9node11_t1 + U_node9node11_t1
                                 <= 0
 Constraint_maintain_upgrade_timber_node9node14_1: - C_timber_node9node14_t0
                                 - M_timber_node9node14_t0
                                 + M_timber_node9node14_t1 + U_node9node14_t1
                                 <= 0
 Constraint_maintain_upgrade_timber_node10node13_1: - C_timber_node10node13_t0
                                 - M_timber_node10node13_t0
                                 + M_timber_node10node13_t1 + U_node10node13_t1
                                 <= 0
 Constraint_maintain_upgrade_timber_node11node14_1: - C_timber_node11node14_t0
                                 - M_timber_node11node14_t0
                                 + M_timber_node11node14_t1 + U_node11node14_t1
                                 <= 0
 Constraint_maintain_upgrade_timber_node1node3_2: - C_timber_node1node3_t1
                                 - M_timber_node1node3_t1
                                 + M_timber_node1node3_t2 + U_node1node3_t2
                                 <= 0
 Constraint_maintain_upgrade_timber_node1node2_2: - C_timber_node1node2_t1
                                 - M_timber_node1node2_t1
                                 + M_timber_node1node2_t2 + U_node1node2_t2
                                 <= 0
 Constraint_maintain_upgrade_timber_node1node7_2: - C_timber_node1node7_t1
                                 - M_timber_node1node7_t1
                                 + M_timber_node1node7_t2 + U_node1node7_t2
                                 <= 0
 Constraint_maintain_upgrade_timber_node1node12_2: - C_timber_node1node12_t1
                                 - M_timber_node1node12_t1
                                 + M_timber_node1node12_t2 + U_node1node12_t2
                                 <= 0
 Constraint_maintain_upgrade_timber_node1node15_2: - C_timber_node1node15_t1
                                 - M_timber_node1node15_t1
                                 + M_timber_node1node15_t2 + U_node1node15_t2
                                 <= 0
 Constraint_maintain_upgrade_timber_node2node3_2: - C_timber_node2node3_t1
                                 - M_timber_node2node3_t1
                                 + M_timber_node2node3_t2 + U_node2node3_t2
                                 <= 0
 Constraint_maintain_upgrade_timber_node2node12_2: - C_timber_node2node12_t1
                                 - M_timber_node2node12_t1
                                 + M_timber_node2node12_t2 + U_node2node12_t2
                                 <= 0
 Constraint_maintain_upgrade_timber_node2node15_2: - C_timber_node2node15_t1
                                 - M_timber_node2node15_t1
                                 + M_timber_node2node15_t2 + U_node2node15_t2
                                 <= 0
 Constraint_maintain_upgrade_timber_node3node8_2: - C_timber_node3node8_t1
                                 - M_timber_node3node8_t1
                                 + M_timber_node3node8_t2 + U_node3node8_t2
                                 <= 0
 Constraint_maintain_upgrade_timber_node3node12_2: - C_timber_node3node12_t1
                                 - M_timber_node3node12_t1
                                 + M_timber_node3node12_t2 + U_node3node12_t2
                                 <= 0
 Constraint_maintain_upgrade_timber_node3node15_2: - C_timber_node3node15_t1
                                 - M_timber_node3node15_t1
                                 + M_timber_node3node15_t2 + U_node3node15_t2
                                 <= 0
 Constraint_maintain_upgrade_timber_node4node5_2: - C_timber_node4node5_t1
                                 - M_timber_node4node5_t1
                                 + M_timber_node4node5_t2 + U_node4node5_t2
                                 <= 0
 Constraint_maintain_upgrade_timber_node4node11_2: - C_timber_node4node11_t1
                                 - M_timber_node4node11_t1
                                 + M_timber_node4node11_t2 + U_node4node11_t2
                                 <= 0
 Constraint_maintain_upgrade_timber_node4node6_2: - C_timber_node4node6_t1
                                 - M_timber_node4node6_t1
                                 + M_timber_node4node6_t2 + U_node4node6_t2
                                 <= 0
 Constraint_maintain_upgrade_timber_node4node13_2: - C_timber_node4node13_t1
                                 - M_timber_node4node13_t1
                                 + M_timber_node4node13_t2 + U_node4node13_t2
                                 <= 0
 Constraint_maintain_upgrade_timber_node4node14_2: - C_timber_node4node14_t1
                                 - M_timber_node4node14_t1
                                 + M_timber_node4node14_t2 + U_node4node14_t2
                                 <= 0
 Constraint_maintain_upgrade_timber_node5node8_2: - C_timber_node5node8_t1
                                 - M_timber_node5node8_t1
                                 + M_timber_node5node8_t2 + U_node5node8_t2
                                 <= 0
 Constraint_maintain_upgrade_timber_node5node13_2: - C_timber_node5node13_t1
                                 - M_timber_node5node13_t1
                                 + M_timber_node5node13_t2 + U_node5node13_t2
                                 <= 0
 Constraint_maintain_upgrade_timber_node6node10_2: - C_timber_node6node10_t1
                                 - M_timber_node6node10_t1
                                 + M_timber_node6node10_t2 + U_node6node10_t2
                                 <= 0
 Constraint_maintain_upgrade_timber_node6node9_2: - C_timber_node6node9_t1
                                 - M_timber_node6node9_t1
                                 + M_timber_node6node9_t2 + U_node6node9_t2
                                 <= 0
 Constraint_maintain_upgrade_timber_node6node13_2: - C_timber_node6node13_t1
                                 - M_timber_node6node13_t1
                                 + M_timber_node6node13_t2 + U_node6node13_t2
                                 <= 0
 Constraint_maintain_upgrade_timber_node6node14_2: - C_timber_node6node14_t1
                                 - M_timber_node6node14_t1
                                 + M_timber_node6node14_t2 + U_node6node14_t2
                                 <= 0
 Constraint_maintain_upgrade_timber_node7node10_2: - C_timber_node7node10_t1
                                 - M_timber_node7node10_t1
                                 + M_timber_node7node10_t2 + U_node7node10_t2
                                 <= 0
 Constraint_maintain_upgrade_timber_node7node8_2: - C_timber_node7node8_t1
                                 - M_timber_node7node8_t1
                                 + M_timber_node7node8_t2 + U_node7node8_t2
                                 <= 0
 Constraint_maintain_upgrade_timber_node7node12_2: - C_timber_node7node12_t1
                                 - M_timber_node7node12_t1
                                 + M_timber_node7node12_t2 + U_node7node12_t2
                                 <= 0
 Constraint_maintain_upgrade_timber_node7node13_2: - C_timber_node7node13_t1
                                 - M_timber_node7node13_t1
                                 + M_timber_node7node13_t2 + U_node7node13_t2
                                 <= 0
 Constraint_maintain_upgrade_timber_node8node12_2: - C_timber_node8node12_t1
                                 - M_timber_node8node12_t1
                                 + M_timber_node8node12_t2 + U_node8node12_t2
                                 <= 0
 Constraint_maintain_upgrade_timber_node8node13_2: - C_timber_node8node13_t1
                                 - M_timber_node8node13_t1
                                 + M_timber_node8node13_t2 + U_node8node13_t2
                                 <= 0
 Constraint_maintain_upgrade_timber_node9node11_2: - C_timber_node9node11_t1
                                 - M_timber_node9node11_t1
                                 + M_timber_node9node11_t2 + U_node9node11_t2
                                 <= 0
 Constraint_maintain_upgrade_timber_node9node14_2: - C_timber_node9node14_t1
                                 - M_timber_node9node14_t1
                                 + M_timber_node9node14_t2 + U_node9node14_t2
                                 <= 0
 Constraint_maintain_upgrade_timber_node10node13_2: - C_timber_node10node13_t1
                                 - M_timber_node10node13_t1
                                 + M_timber_node10node13_t2 + U_node10node13_t2
                                 <= 0
 Constraint_maintain_upgrade_timber_node11node14_2: - C_timber_node11node14_t1
                                 - M_timber_node11node14_t1
                                 + M_timber_node11node14_t2 + U_node11node14_t2
                                 <= 0
 Constraint_maintain_upgrade_timber_node1node3_3: - C_timber_node1node3_t2
                                 - M_timber_node1node3_t2
                                 + M_timber_node1node3_t3 + U_node1node3_t3
                                 <= 0
 Constraint_maintain_upgrade_timber_node1node2_3: - C_timber_node1node2_t2
                                 - M_timber_node1node2_t2
                                 + M_timber_node1node2_t3 + U_node1node2_t3
                                 <= 0
 Constraint_maintain_upgrade_timber_node1node7_3: - C_timber_node1node7_t2
                                 - M_timber_node1node7_t2
                                 + M_timber_node1node7_t3 + U_node1node7_t3
                                 <= 0
 Constraint_maintain_upgrade_timber_node1node12_3: - C_timber_node1node12_t2
                                 - M_timber_node1node12_t2
                                 + M_timber_node1node12_t3 + U_node1node12_t3
                                 <= 0
 Constraint_maintain_upgrade_timber_node1node15_3: - C_timber_node1node15_t2
                                 - M_timber_node1node15_t2
                                 + M_timber_node1node15_t3 + U_node1node15_t3
                                 <= 0
 Constraint_maintain_upgrade_timber_node2node3_3: - C_timber_node2node3_t2
                                 - M_timber_node2node3_t2
                                 + M_timber_node2node3_t3 + U_node2node3_t3
                                 <= 0
 Constraint_maintain_upgrade_timber_node2node12_3: - C_timber_node2node12_t2
                                 - M_timber_node2node12_t2
                                 + M_timber_node2node12_t3 + U_node2node12_t3
                                 <= 0
 Constraint_maintain_upgrade_timber_node2node15_3: - C_timber_node2node15_t2
                                 - M_timber_node2node15_t2
                                 + M_timber_node2node15_t3 + U_node2node15_t3
                                 <= 0
 Constraint_maintain_upgrade_timber_node3node8_3: - C_timber_node3node8_t2
                                 - M_timber_node3node8_t2
                                 + M_timber_node3node8_t3 + U_node3node8_t3
                                 <= 0
 Constraint_maintain_upgrade_timber_node3node12_3: - C_timber_node3node12_t2
                                 - M_timber_node3node12_t2
                                 + M_timber_node3node12_t3 + U_node3node12_t3
                                 <= 0
 Constraint_maintain_upgrade_timber_node3node15_3: - C_timber_node3node15_t2
                                 - M_timber_node3node15_t2
                                 + M_timber_node3node15_t3 + U_node3node15_t3
                                 <= 0
 Constraint_maintain_upgrade_timber_node4node5_3: - C_timber_node4node5_t2
                                 - M_timber_node4node5_t2
                                 + M_timber_node4node5_t3 + U_node4node5_t3
                                 <= 0
 Constraint_maintain_upgrade_timber_node4node11_3: - C_timber_node4node11_t2
                                 - M_timber_node4node11_t2
                                 + M_timber_node4node11_t3 + U_node4node11_t3
                                 <= 0
 Constraint_maintain_upgrade_timber_node4node6_3: - C_timber_node4node6_t2
                                 - M_timber_node4node6_t2
                                 + M_timber_node4node6_t3 + U_node4node6_t3
                                 <= 0
 Constraint_maintain_upgrade_timber_node4node13_3: - C_timber_node4node13_t2
                                 - M_timber_node4node13_t2
                                 + M_timber_node4node13_t3 + U_node4node13_t3
                                 <= 0
 Constraint_maintain_upgrade_timber_node4node14_3: - C_timber_node4node14_t2
                                 - M_timber_node4node14_t2
                                 + M_timber_node4node14_t3 + U_node4node14_t3
                                 <= 0
 Constraint_maintain_upgrade_timber_node5node8_3: - C_timber_node5node8_t2
                                 - M_timber_node5node8_t2
                                 + M_timber_node5node8_t3 + U_node5node8_t3
                                 <= 0
 Constraint_maintain_upgrade_timber_node5node13_3: - C_timber_node5node13_t2
                                 - M_timber_node5node13_t2
                                 + M_timber_node5node13_t3 + U_node5node13_t3
                                 <= 0
 Constraint_maintain_upgrade_timber_node6node10_3: - C_timber_node6node10_t2
                                 - M_timber_node6node10_t2
                                 + M_timber_node6node10_t3 + U_node6node10_t3
                                 <= 0
 Constraint_maintain_upgrade_timber_node6node9_3: - C_timber_node6node9_t2
                                 - M_timber_node6node9_t2
                                 + M_timber_node6node9_t3 + U_node6node9_t3
                                 <= 0
 Constraint_maintain_upgrade_timber_node6node13_3: - C_timber_node6node13_t2
                                 - M_timber_node6node13_t2
                                 + M_timber_node6node13_t3 + U_node6node13_t3
                                 <= 0
 Constraint_maintain_upgrade_timber_node6node14_3: - C_timber_node6node14_t2
                                 - M_timber_node6node14_t2
                                 + M_timber_node6node14_t3 + U_node6node14_t3
                                 <= 0
 Constraint_maintain_upgrade_timber_node7node10_3: - C_timber_node7node10_t2
                                 - M_timber_node7node10_t2
                                 + M_timber_node7node10_t3 + U_node7node10_t3
                                 <= 0
 Constraint_maintain_upgrade_timber_node7node8_3: - C_timber_node7node8_t2
                                 - M_timber_node7node8_t2
                                 + M_timber_node7node8_t3 + U_node7node8_t3
                                 <= 0
 Constraint_maintain_upgrade_timber_node7node12_3: - C_timber_node7node12_t2
                                 - M_timber_node7node12_t2
                                 + M_timber_node7node12_t3 + U_node7node12_t3
                                 <= 0
 Constraint_maintain_upgrade_timber_node7node13_3: - C_timber_node7node13_t2
                                 - M_timber_node7node13_t2
                                 + M_timber_node7node13_t3 + U_node7node13_t3
                                 <= 0
 Constraint_maintain_upgrade_timber_node8node12_3: - C_timber_node8node12_t2
                                 - M_timber_node8node12_t2
                                 + M_timber_node8node12_t3 + U_node8node12_t3
                                 <= 0
 Constraint_maintain_upgrade_timber_node8node13_3: - C_timber_node8node13_t2
                                 - M_timber_node8node13_t2
                                 + M_timber_node8node13_t3 + U_node8node13_t3
                                 <= 0
 Constraint_maintain_upgrade_timber_node9node11_3: - C_timber_node9node11_t2
                                 - M_timber_node9node11_t2
                                 + M_timber_node9node11_t3 + U_node9node11_t3
                                 <= 0
 Constraint_maintain_upgrade_timber_node9node14_3: - C_timber_node9node14_t2
                                 - M_timber_node9node14_t2
                                 + M_timber_node9node14_t3 + U_node9node14_t3
                                 <= 0
 Constraint_maintain_upgrade_timber_node10node13_3: - C_timber_node10node13_t2
                                 - M_timber_node10node13_t2
                                 + M_timber_node10node13_t3 + U_node10node13_t3
                                 <= 0
 Constraint_maintain_upgrade_timber_node11node14_3: - C_timber_node11node14_t2
                                 - M_timber_node11node14_t2
                                 + M_timber_node11node14_t3 + U_node11node14_t3
                                 <= 0
 Constraint_maintain_upgrade_timber_node1node3_4: - C_timber_node1node3_t3
                                 - M_timber_node1node3_t3
                                 + M_timber_node1node3_t4 + U_node1node3_t4
                                 <= 0
 Constraint_maintain_upgrade_timber_node1node2_4: - C_timber_node1node2_t3
                                 - M_timber_node1node2_t3
                                 + M_timber_node1node2_t4 + U_node1node2_t4
                                 <= 0
 Constraint_maintain_upgrade_timber_node1node7_4: - C_timber_node1node7_t3
                                 - M_timber_node1node7_t3
                                 + M_timber_node1node7_t4 + U_node1node7_t4
                                 <= 0
 Constraint_maintain_upgrade_timber_node1node12_4: - C_timber_node1node12_t3
                                 - M_timber_node1node12_t3
                                 + M_timber_node1node12_t4 + U_node1node12_t4
                                 <= 0
 Constraint_maintain_upgrade_timber_node1node15_4: - C_timber_node1node15_t3
                                 - M_timber_node1node15_t3
                                 + M_timber_node1node15_t4 + U_node1node15_t4
                                 <= 0
 Constraint_maintain_upgrade_timber_node2node3_4: - C_timber_node2node3_t3
                                 - M_timber_node2node3_t3
                                 + M_timber_node2node3_t4 + U_node2node3_t4
                                 <= 0
 Constraint_maintain_upgrade_timber_node2node12_4: - C_timber_node2node12_t3
                                 - M_timber_node2node12_t3
                                 + M_timber_node2node12_t4 + U_node2node12_t4
                                 <= 0
 Constraint_maintain_upgrade_timber_node2node15_4: - C_timber_node2node15_t3
                                 - M_timber_node2node15_t3
                                 + M_timber_node2node15_t4 + U_node2node15_t4
                                 <= 0
 Constraint_maintain_upgrade_timber_node3node8_4: - C_timber_node3node8_t3
                                 - M_timber_node3node8_t3
                                 + M_timber_node3node8_t4 + U_node3node8_t4
                                 <= 0
 Constraint_maintain_upgrade_timber_node3node12_4: - C_timber_node3node12_t3
                                 - M_timber_node3node12_t3
                                 + M_timber_node3node12_t4 + U_node3node12_t4
                                 <= 0
 Constraint_maintain_upgrade_timber_node3node15_4: - C_timber_node3node15_t3
                                 - M_timber_node3node15_t3
                                 + M_timber_node3node15_t4 + U_node3node15_t4
                                 <= 0
 Constraint_maintain_upgrade_timber_node4node5_4: - C_timber_node4node5_t3
                                 - M_timber_node4node5_t3
                                 + M_timber_node4node5_t4 + U_node4node5_t4
                                 <= 0
 Constraint_maintain_upgrade_timber_node4node11_4: - C_timber_node4node11_t3
                                 - M_timber_node4node11_t3
                                 + M_timber_node4node11_t4 + U_node4node11_t4
                                 <= 0
 Constraint_maintain_upgrade_timber_node4node6_4: - C_timber_node4node6_t3
                                 - M_timber_node4node6_t3
                                 + M_timber_node4node6_t4 + U_node4node6_t4
                                 <= 0
 Constraint_maintain_upgrade_timber_node4node13_4: - C_timber_node4node13_t3
                                 - M_timber_node4node13_t3
                                 + M_timber_node4node13_t4 + U_node4node13_t4
                                 <= 0
 Constraint_maintain_upgrade_timber_node4node14_4: - C_timber_node4node14_t3
                                 - M_timber_node4node14_t3
                                 + M_timber_node4node14_t4 + U_node4node14_t4
                                 <= 0
 Constraint_maintain_upgrade_timber_node5node8_4: - C_timber_node5node8_t3
                                 - M_timber_node5node8_t3
                                 + M_timber_node5node8_t4 + U_node5node8_t4
                                 <= 0
 Constraint_maintain_upgrade_timber_node5node13_4: - C_timber_node5node13_t3
                                 - M_timber_node5node13_t3
                                 + M_timber_node5node13_t4 + U_node5node13_t4
                                 <= 0
 Constraint_maintain_upgrade_timber_node6node10_4: - C_timber_node6node10_t3
                                 - M_timber_node6node10_t3
                                 + M_timber_node6node10_t4 + U_node6node10_t4
                                 <= 0
 Constraint_maintain_upgrade_timber_node6node9_4: - C_timber_node6node9_t3
                                 - M_timber_node6node9_t3
                                 + M_timber_node6node9_t4 + U_node6node9_t4
                                 <= 0
 Constraint_maintain_upgrade_timber_node6node13_4: - C_timber_node6node13_t3
                                 - M_timber_node6node13_t3
                                 + M_timber_node6node13_t4 + U_node6node13_t4
                                 <= 0
 Constraint_maintain_upgrade_timber_node6node14_4: - C_timber_node6node14_t3
                                 - M_timber_node6node14_t3
                                 + M_timber_node6node14_t4 + U_node6node14_t4
                                 <= 0
 Constraint_maintain_upgrade_timber_node7node10_4: - C_timber_node7node10_t3
                                 - M_timber_node7node10_t3
                                 + M_timber_node7node10_t4 + U_node7node10_t4
                                 <= 0
 Constraint_maintain_upgrade_timber_node7node8_4: - C_timber_node7node8_t3
                                 - M_timber_node7node8_t3
                                 + M_timber_node7node8_t4 + U_node7node8_t4
                                 <= 0
 Constraint_maintain_upgrade_timber_node7node12_4: - C_timber_node7node12_t3
                                 - M_timber_node7node12_t3
                                 + M_timber_node7node12_t4 + U_node7node12_t4
                                 <= 0
 Constraint_maintain_upgrade_timber_node7node13_4: - C_timber_node7node13_t3
                                 - M_timber_node7node13_t3
                                 + M_timber_node7node13_t4 + U_node7node13_t4
                                 <= 0
 Constraint_maintain_upgrade_timber_node8node12_4: - C_timber_node8node12_t3
                                 - M_timber_node8node12_t3
                                 + M_timber_node8node12_t4 + U_node8node12_t4
                                 <= 0
 Constraint_maintain_upgrade_timber_node8node13_4: - C_timber_node8node13_t3
                                 - M_timber_node8node13_t3
                                 + M_timber_node8node13_t4 + U_node8node13_t4
                                 <= 0
 Constraint_maintain_upgrade_timber_node9node11_4: - C_timber_node9node11_t3
                                 - M_timber_node9node11_t3
                                 + M_timber_node9node11_t4 + U_node9node11_t4
                                 <= 0
 Constraint_maintain_upgrade_timber_node9node14_4: - C_timber_node9node14_t3
                                 - M_timber_node9node14_t3
                                 + M_timber_node9node14_t4 + U_node9node14_t4
                                 <= 0
 Constraint_maintain_upgrade_timber_node10node13_4: - C_timber_node10node13_t3
                                 - M_timber_node10node13_t3
                                 + M_timber_node10node13_t4 + U_node10node13_t4
                                 <= 0
 Constraint_maintain_upgrade_timber_node11node14_4: - C_timber_node11node14_t3
                                 - M_timber_node11node14_t3
                                 + M_timber_node11node14_t4 + U_node11node14_t4
                                 <= 0
 Constraint_maintain_upgrade_timber_node1node3_5: - C_timber_node1node3_t4
                                 - M_timber_node1node3_t4
                                 + M_timber_node1node3_t5 + U_node1node3_t5
                                 <= 0
 Constraint_maintain_upgrade_timber_node1node2_5: - C_timber_node1node2_t4
                                 - M_timber_node1node2_t4
                                 + M_timber_node1node2_t5 + U_node1node2_t5
                                 <= 0
 Constraint_maintain_upgrade_timber_node1node7_5: - C_timber_node1node7_t4
                                 - M_timber_node1node7_t4
                                 + M_timber_node1node7_t5 + U_node1node7_t5
                                 <= 0
 Constraint_maintain_upgrade_timber_node1node12_5: - C_timber_node1node12_t4
                                 - M_timber_node1node12_t4
                                 + M_timber_node1node12_t5 + U_node1node12_t5
                                 <= 0
 Constraint_maintain_upgrade_timber_node1node15_5: - C_timber_node1node15_t4
                                 - M_timber_node1node15_t4
                                 + M_timber_node1node15_t5 + U_node1node15_t5
                                 <= 0
 Constraint_maintain_upgrade_timber_node2node3_5: - C_timber_node2node3_t4
                                 - M_timber_node2node3_t4
                                 + M_timber_node2node3_t5 + U_node2node3_t5
                                 <= 0
 Constraint_maintain_upgrade_timber_node2node12_5: - C_timber_node2node12_t4
                                 - M_timber_node2node12_t4
                                 + M_timber_node2node12_t5 + U_node2node12_t5
                                 <= 0
 Constraint_maintain_upgrade_timber_node2node15_5: - C_timber_node2node15_t4
                                 - M_timber_node2node15_t4
                                 + M_timber_node2node15_t5 + U_node2node15_t5
                                 <= 0
 Constraint_maintain_upgrade_timber_node3node8_5: - C_timber_node3node8_t4
                                 - M_timber_node3node8_t4
                                 + M_timber_node3node8_t5 + U_node3node8_t5
                                 <= 0
 Constraint_maintain_upgrade_timber_node3node12_5: - C_timber_node3node12_t4
                                 - M_timber_node3node12_t4
                                 + M_timber_node3node12_t5 + U_node3node12_t5
                                 <= 0
 Constraint_maintain_upgrade_timber_node3node15_5: - C_timber_node3node15_t4
                                 - M_timber_node3node15_t4
                                 + M_timber_node3node15_t5 + U_node3node15_t5
                                 <= 0
 Constraint_maintain_upgrade_timber_node4node5_5: - C_timber_node4node5_t4
                                 - M_timber_node4node5_t4
                                 + M_timber_node4node5_t5 + U_node4node5_t5
                                 <= 0
 Constraint_maintain_upgrade_timber_node4node11_5: - C_timber_node4node11_t4
                                 - M_timber_node4node11_t4
                                 + M_timber_node4node11_t5 + U_node4node11_t5
                                 <= 0
 Constraint_maintain_upgrade_timber_node4node6_5: - C_timber_node4node6_t4
                                 - M_timber_node4node6_t4
                                 + M_timber_node4node6_t5 + U_node4node6_t5
                                 <= 0
 Constraint_maintain_upgrade_timber_node4node13_5: - C_timber_node4node13_t4
                                 - M_timber_node4node13_t4
                                 + M_timber_node4node13_t5 + U_node4node13_t5
                                 <= 0
 Constraint_maintain_upgrade_timber_node4node14_5: - C_timber_node4node14_t4
                                 - M_timber_node4node14_t4
                                 + M_timber_node4node14_t5 + U_node4node14_t5
                                 <= 0
 Constraint_maintain_upgrade_timber_node5node8_5: - C_timber_node5node8_t4
                                 - M_timber_node5node8_t4
                                 + M_timber_node5node8_t5 + U_node5node8_t5
                                 <= 0
 Constraint_maintain_upgrade_timber_node5node13_5: - C_timber_node5node13_t4
                                 - M_timber_node5node13_t4
                                 + M_timber_node5node13_t5 + U_node5node13_t5
                                 <= 0
 Constraint_maintain_upgrade_timber_node6node10_5: - C_timber_node6node10_t4
                                 - M_timber_node6node10_t4
                                 + M_timber_node6node10_t5 + U_node6node10_t5
                                 <= 0
 Constraint_maintain_upgrade_timber_node6node9_5: - C_timber_node6node9_t4
                                 - M_timber_node6node9_t4
                                 + M_timber_node6node9_t5 + U_node6node9_t5
                                 <= 0
 Constraint_maintain_upgrade_timber_node6node13_5: - C_timber_node6node13_t4
                                 - M_timber_node6node13_t4
                                 + M_timber_node6node13_t5 + U_node6node13_t5
                                 <= 0
 Constraint_maintain_upgrade_timber_node6node14_5: - C_timber_node6node14_t4
                                 - M_timber_node6node14_t4
                                 + M_timber_node6node14_t5 + U_node6node14_t5
                                 <= 0
 Constraint_maintain_upgrade_timber_node7node10_5: - C_timber_node7node10_t4
                                 - M_timber_node7node10_t4
                                 + M_timber_node7node10_t5 + U_node7node10_t5
                                 <= 0
 Constraint_maintain_upgrade_timber_node7node8_5: - C_timber_node7node8_t4
                                 - M_timber_node7node8_t4
                                 + M_timber_node7node8_t5 + U_node7node8_t5
                                 <= 0
 Constraint_maintain_upgrade_timber_node7node12_5: - C_timber_node7node12_t4
                                 - M_timber_node7node12_t4
                                 + M_timber_node7node12_t5 + U_node7node12_t5
                                 <= 0
 Constraint_maintain_upgrade_timber_node7node13_5: - C_timber_node7node13_t4
                                 - M_timber_node7node13_t4
                                 + M_timber_node7node13_t5 + U_node7node13_t5
                                 <= 0
 Constraint_maintain_upgrade_timber_node8node12_5: - C_timber_node8node12_t4
                                 - M_timber_node8node12_t4
                                 + M_timber_node8node12_t5 + U_node8node12_t5
                                 <= 0
 Constraint_maintain_upgrade_timber_node8node13_5: - C_timber_node8node13_t4
                                 - M_timber_node8node13_t4
                                 + M_timber_node8node13_t5 + U_node8node13_t5
                                 <= 0
 Constraint_maintain_upgrade_timber_node9node11_5: - C_timber_node9node11_t4
                                 - M_timber_node9node11_t4
                                 + M_timber_node9node11_t5 + U_node9node11_t5
                                 <= 0
 Constraint_maintain_upgrade_timber_node9node14_5: - C_timber_node9node14_t4
                                 - M_timber_node9node14_t4
                                 + M_timber_node9node14_t5 + U_node9node14_t5
                                 <= 0
 Constraint_maintain_upgrade_timber_node10node13_5: - C_timber_node10node13_t4
                                 - M_timber_node10node13_t4
                                 + M_timber_node10node13_t5 + U_node10node13_t5
                                 <= 0
 Constraint_maintain_upgrade_timber_node11node14_5: - C_timber_node11node14_t4
                                 - M_timber_node11node14_t4
                                 + M_timber_node11node14_t5 + U_node11node14_t5
                                 <= 0
 Constraint_maintain_upgrade_wide_node1node3_1: - C_wide_node1node3_t0
                                 - M_wide_node1node3_t0 + M_wide_node1node3_t1
                                 - U_node1node3_t0 <= 0
 Constraint_maintain_upgrade_wide_node1node2_1: - C_wide_node1node2_t0
                                 - M_wide_node1node2_t0 + M_wide_node1node2_t1
                                 - U_node1node2_t0 <= 0
 Constraint_maintain_upgrade_wide_node1node7_1: - C_wide_node1node7_t0
                                 - M_wide_node1node7_t0 + M_wide_node1node7_t1
                                 - U_node1node7_t0 <= 0
 Constraint_maintain_upgrade_wide_node1node12_1: - C_wide_node1node12_t0
                                 - M_wide_node1node12_t0
                                 + M_wide_node1node12_t1 - U_node1node12_t0
                                 <= 0
 Constraint_maintain_upgrade_wide_node1node15_1: - C_wide_node1node15_t0
                                 - M_wide_node1node15_t0
                                 + M_wide_node1node15_t1 - U_node1node15_t0
                                 <= 0
 Constraint_maintain_upgrade_wide_node2node3_1: - C_wide_node2node3_t0
                                 - M_wide_node2node3_t0 + M_wide_node2node3_t1
                                 - U_node2node3_t0 <= 0
 Constraint_maintain_upgrade_wide_node2node12_1: - C_wide_node2node12_t0
                                 - M_wide_node2node12_t0
                                 + M_wide_node2node12_t1 - U_node2node12_t0
                                 <= 0
 Constraint_maintain_upgrade_wide_node2node15_1: - C_wide_node2node15_t0
                                 - M_wide_node2node15_t0
                                 + M_wide_node2node15_t1 - U_node2node15_t0
                                 <= 0
 Constraint_maintain_upgrade_wide_node3node8_1: - C_wide_node3node8_t0
                                 - M_wide_node3node8_t0 + M_wide_node3node8_t1
                                 - U_node3node8_t0 <= 0
 Constraint_maintain_upgrade_wide_node3node12_1: - C_wide_node3node12_t0
                                 - M_wide_node3node12_t0
                                 + M_wide_node3node12_t1 - U_node3node12_t0
                                 <= 0
 Constraint_maintain_upgrade_wide_node3node15_1: - C_wide_node3node15_t0
                                 - M_wide_node3node15_t0
                                 + M_wide_node3node15_t1 - U_node3node15_t0
                                 <= 0
 Constraint_maintain_upgrade_wide_node4node5_1: - C_wide_node4node5_t0
                                 - M_wide_node4node5_t0 + M_wide_node4node5_t1
                                 - U_node4node5_t0 <= 0
 Constraint_maintain_upgrade_wide_node4node11_1: - C_wide_node4node11_t0
                                 - M_wide_node4node11_t0
                                 + M_wide_node4node11_t1 - U_node4node11_t0
                                 <= 0
 Constraint_maintain_upgrade_wide_node4node6_1: - C_wide_node4node6_t0
                                 - M_wide_node4node6_t0 + M_wide_node4node6_t1
                                 - U_node4node6_t0 <= 0
 Constraint_maintain_upgrade_wide_node4node13_1: - C_wide_node4node13_t0
                                 - M_wide_node4node13_t0
                                 + M_wide_node4node13_t1 - U_node4node13_t0
                                 <= 0
 Constraint_maintain_upgrade_wide_node4node14_1: - C_wide_node4node14_t0
                                 - M_wide_node4node14_t0
                                 + M_wide_node4node14_t1 - U_node4node14_t0
                                 <= 0
 Constraint_maintain_upgrade_wide_node5node8_1: - C_wide_node5node8_t0
                                 - M_wide_node5node8_t0 + M_wide_node5node8_t1
                                 - U_node5node8_t0 <= 0
 Constraint_maintain_upgrade_wide_node5node13_1: - C_wide_node5node13_t0
                                 - M_wide_node5node13_t0
                                 + M_wide_node5node13_t1 - U_node5node13_t0
                                 <= 0
 Constraint_maintain_upgrade_wide_node6node10_1: - C_wide_node6node10_t0
                                 - M_wide_node6node10_t0
                                 + M_wide_node6node10_t1 - U_node6node10_t0
                                 <= 0
 Constraint_maintain_upgrade_wide_node6node9_1: - C_wide_node6node9_t0
                                 - M_wide_node6node9_t0 + M_wide_node6node9_t1
                                 - U_node6node9_t0 <= 0
 Constraint_maintain_upgrade_wide_node6node13_1: - C_wide_node6node13_t0
                                 - M_wide_node6node13_t0
                                 + M_wide_node6node13_t1 - U_node6node13_t0
                                 <= 0
 Constraint_maintain_upgrade_wide_node6node14_1: - C_wide_node6node14_t0
                                 - M_wide_node6node14_t0
                                 + M_wide_node6node14_t1 - U_node6node14_t0
                                 <= 0
 Constraint_maintain_upgrade_wide_node7node10_1: - C_wide_node7node10_t0
                                 - M_wide_node7node10_t0
                                 + M_wide_node7node10_t1 - U_node7node10_t0
                                 <= 0
 Constraint_maintain_upgrade_wide_node7node8_1: - C_wide_node7node8_t0
                                 - M_wide_node7node8_t0 + M_wide_node7node8_t1
                                 - U_node7node8_t0 <= 0
 Constraint_maintain_upgrade_wide_node7node12_1: - C_wide_node7node12_t0
                                 - M_wide_node7node12_t0
                                 + M_wide_node7node12_t1 - U_node7node12_t0
                                 <= 0
 Constraint_maintain_upgrade_wide_node7node13_1: - C_wide_node7node13_t0
                                 - M_wide_node7node13_t0
                                 + M_wide_node7node13_t1 - U_node7node13_t0
                                 <= 0
 Constraint_maintain_upgrade_wide_node8node12_1: - C_wide_node8node12_t0
                                 - M_wide_node8node12_t0
                                 + M_wide_node8node12_t1 - U_node8node12_t0
                                 <= 0
 Constraint_maintain_upgrade_wide_node8node13_1: - C_wide_node8node13_t0
                                 - M_wide_node8node13_t0
                                 + M_wide_node8node13_t1 - U_node8node13_t0
                                 <= 0
 Constraint_maintain_upgrade_wide_node9node11_1: - C_wide_node9node11_t0
                                 - M_wide_node9node11_t0
                                 + M_wide_node9node11_t1 - U_node9node11_t0
                                 <= 0
 Constraint_maintain_upgrade_wide_node9node14_1: - C_wide_node9node14_t0
                                 - M_wide_node9node14_t0
                                 + M_wide_node9node14_t1 - U_node9node14_t0
                                 <= 0
 Constraint_maintain_upgrade_wide_node10node13_1: - C_wide_node10node13_t0
                                 - M_wide_node10node13_t0
                                 + M_wide_node10node13_t1 - U_node10node13_t0
                                 <= 0
 Constraint_maintain_upgrade_wide_node11node14_1: - C_wide_node11node14_t0
                                 - M_wide_node11node14_t0
                                 + M_wide_node11node14_t1 - U_node11node14_t0
                                 <= 0
 Constraint_maintain_upgrade_wide_node1node3_2: - C_wide_node1node3_t1
                                 - M_wide_node1node3_t1 + M_wide_node1node3_t2
                                 - U_node1node3_t1 <= 0
 Constraint_maintain_upgrade_wide_node1node2_2: - C_wide_node1node2_t1
                                 - M_wide_node1node2_t1 + M_wide_node1node2_t2
                                 - U_node1node2_t1 <= 0
 Constraint_maintain_upgrade_wide_node1node7_2: - C_wide_node1node7_t1
                                 - M_wide_node1node7_t1 + M_wide_node1node7_t2
                                 - U_node1node7_t1 <= 0
 Constraint_maintain_upgrade_wide_node1node12_2: - C_wide_node1node12_t1
                                 - M_wide_node1node12_t1
                                 + M_wide_node1node12_t2 - U_node1node12_t1
                                 <= 0
 Constraint_maintain_upgrade_wide_node1node15_2: - C_wide_node1node15_t1
                                 - M_wide_node1node15_t1
                                 + M_wide_node1node15_t2 - U_node1node15_t1
                                 <= 0
 Constraint_maintain_upgrade_wide_node2node3_2: - C_wide_node2node3_t1
                                 - M_wide_node2node3_t1 + M_wide_node2node3_t2
                                 - U_node2node3_t1 <= 0
 Constraint_maintain_upgrade_wide_node2node12_2: - C_wide_node2node12_t1
                                 - M_wide_node2node12_t1
                                 + M_wide_node2node12_t2 - U_node2node12_t1
                                 <= 0
 Constraint_maintain_upgrade_wide_node2node15_2: - C_wide_node2node15_t1
                                 - M_wide_node2node15_t1
                                 + M_wide_node2node15_t2 - U_node2node15_t1
                                 <= 0
 Constraint_maintain_upgrade_wide_node3node8_2: - C_wide_node3node8_t1
                                 - M_wide_node3node8_t1 + M_wide_node3node8_t2
                                 - U_node3node8_t1 <= 0
 Constraint_maintain_upgrade_wide_node3node12_2: - C_wide_node3node12_t1
                                 - M_wide_node3node12_t1
                                 + M_wide_node3node12_t2 - U_node3node12_t1
                                 <= 0
 Constraint_maintain_upgrade_wide_node3node15_2: - C_wide_node3node15_t1
                                 - M_wide_node3node15_t1
                                 + M_wide_node3node15_t2 - U_node3node15_t1
                                 <= 0
 Constraint_maintain_upgrade_wide_node4node5_2: - C_wide_node4node5_t1
                                 - M_wide_node4node5_t1 + M_wide_node4node5_t2
                                 - U_node4node5_t1 <= 0
 Constraint_maintain_upgrade_wide_node4node11_2: - C_wide_node4node11_t1
                                 - M_wide_node4node11_t1
                                 + M_wide_node4node11_t2 - U_node4node11_t1
                                 <= 0
 Constraint_maintain_upgrade_wide_node4node6_2: - C_wide_node4node6_t1
                                 - M_wide_node4node6_t1 + M_wide_node4node6_t2
                                 - U_node4node6_t1 <= 0
 Constraint_maintain_upgrade_wide_node4node13_2: - C_wide_node4node13_t1
                                 - M_wide_node4node13_t1
                                 + M_wide_node4node13_t2 - U_node4node13_t1
                                 <= 0
 Constraint_maintain_upgrade_wide_node4node14_2: - C_wide_node4node14_t1
                                 - M_wide_node4node14_t1
                                 + M_wide_node4node14_t2 - U_node4node14_t1
                                 <= 0
 Constraint_maintain_upgrade_wide_node5node8_2: - C_wide_node5node8_t1
                                 - M_wide_node5node8_t1 + M_wide_node5node8_t2
                                 - U_node5node8_t1 <= 0
 Constraint_maintain_upgrade_wide_node5node13_2: - C_wide_node5node13_t1
                                 - M_wide_node5node13_t1
                                 + M_wide_node5node13_t2 - U_node5node13_t1
                                 <= 0
 Constraint_maintain_upgrade_wide_node6node10_2: - C_wide_node6node10_t1
                                 - M_wide_node6node10_t1
                                 + M_wide_node6node10_t2 - U_node6node10_t1
                                 <= 0
 Constraint_maintain_upgrade_wide_node6node9_2: - C_wide_node6node9_t1
                                 - M_wide_node6node9_t1 + M_wide_node6node9_t2
                                 - U_node6node9_t1 <= 0
 Constraint_maintain_upgrade_wide_node6node13_2: - C_wide_node6node13_t1
                                 - M_wide_node6node13_t1
                                 + M_wide_node6node13_t2 - U_node6node13_t1
                                 <= 0
 Constraint_maintain_upgrade_wide_node6node14_2: - C_wide_node6node14_t1
                                 - M_wide_node6node14_t1
                                 + M_wide_node6node14_t2 - U_node6node14_t1
                                 <= 0
 Constraint_maintain_upgrade_wide_node7node10_2: - C_wide_node7node10_t1
                                 - M_wide_node7node10_t1
                                 + M_wide_node7node10_t2 - U_node7node10_t1
                                 <= 0
 Constraint_maintain_upgrade_wide_node7node8_2: - C_wide_node7node8_t1
                                 - M_wide_node7node8_t1 + M_wide_node7node8_t2
                                 - U_node7node8_t1 <= 0
 Constraint_maintain_upgrade_wide_node7node12_2: - C_wide_node7node12_t1
                                 - M_wide_node7node12_t1
                                 + M_wide_node7node12_t2 - U_node7node12_t1
                                 <= 0
 Constraint_maintain_upgrade_wide_node7node13_2: - C_wide_node7node13_t1
                                 - M_wide_node7node13_t1
                                 + M_wide_node7node13_t2 - U_node7node13_t1
                                 <= 0
 Constraint_maintain_upgrade_wide_node8node12_2: - C_wide_node8node12_t1
                                 - M_wide_node8node12_t1
                                 + M_wide_node8node12_t2 - U_node8node12_t1
                                 <= 0
 Constraint_maintain_upgrade_wide_node8node13_2: - C_wide_node8node13_t1
                                 - M_wide_node8node13_t1
                                 + M_wide_node8node13_t2 - U_node8node13_t1
                                 <= 0
 Constraint_maintain_upgrade_wide_node9node11_2: - C_wide_node9node11_t1
                                 - M_wide_node9node11_t1
                                 + M_wide_node9node11_t2 - U_node9node11_t1
                                 <= 0
 Constraint_maintain_upgrade_wide_node9node14_2: - C_wide_node9node14_t1
                                 - M_wide_node9node14_t1
                                 + M_wide_node9node14_t2 - U_node9node14_t1
                                 <= 0
 Constraint_maintain_upgrade_wide_node10node13_2: - C_wide_node10node13_t1
                                 - M_wide_node10node13_t1
                                 + M_wide_node10node13_t2 - U_node10node13_t1
                                 <= 0
 Constraint_maintain_upgrade_wide_node11node14_2: - C_wide_node11node14_t1
                                 - M_wide_node11node14_t1
                                 + M_wide_node11node14_t2 - U_node11node14_t1
                                 <= 0
 Constraint_maintain_upgrade_wide_node1node3_3: - C_wide_node1node3_t2
                                 - M_wide_node1node3_t2 + M_wide_node1node3_t3
                                 - U_node1node3_t2 <= 0
 Constraint_maintain_upgrade_wide_node1node2_3: - C_wide_node1node2_t2
                                 - M_wide_node1node2_t2 + M_wide_node1node2_t3
                                 - U_node1node2_t2 <= 0
 Constraint_maintain_upgrade_wide_node1node7_3: - C_wide_node1node7_t2
                                 - M_wide_node1node7_t2 + M_wide_node1node7_t3
                                 - U_node1node7_t2 <= 0
 Constraint_maintain_upgrade_wide_node1node12_3: - C_wide_node1node12_t2
                                 - M_wide_node1node12_t2
                                 + M_wide_node1node12_t3 - U_node1node12_t2
                                 <= 0
 Constraint_maintain_upgrade_wide_node1node15_3: - C_wide_node1node15_t2
                                 - M_wide_node1node15_t2
                                 + M_wide_node1node15_t3 - U_node1node15_t2
                                 <= 0
 Constraint_maintain_upgrade_wide_node2node3_3: - C_wide_node2node3_t2
                                 - M_wide_node2node3_t2 + M_wide_node2node3_t3
                                 - U_node2node3_t2 <= 0
 Constraint_maintain_upgrade_wide_node2node12_3: - C_wide_node2node12_t2
                                 - M_wide_node2node12_t2
                                 + M_wide_node2node12_t3 - U_node2node12_t2
                                 <= 0
 Constraint_maintain_upgrade_wide_node2node15_3: - C_wide_node2node15_t2
                                 - M_wide_node2node15_t2
                                 + M_wide_node2node15_t3 - U_node2node15_t2
                                 <= 0
 Constraint_maintain_upgrade_wide_node3node8_3: - C_wide_node3node8_t2
                                 - M_wide_node3node8_t2 + M_wide_node3node8_t3
                                 - U_node3node8_t2 <= 0
 Constraint_maintain_upgrade_wide_node3node12_3: - C_wide_node3node12_t2
                                 - M_wide_node3node12_t2
                                 + M_wide_node3node12_t3 - U_node3node12_t2
                                 <= 0
 Constraint_maintain_upgrade_wide_node3node15_3: - C_wide_node3node15_t2
                                 - M_wide_node3node15_t2
                                 + M_wide_node3node15_t3 - U_node3node15_t2
                                 <= 0
 Constraint_maintain_upgrade_wide_node4node5_3: - C_wide_node4node5_t2
                                 - M_wide_node4node5_t2 + M_wide_node4node5_t3
                                 - U_node4node5_t2 <= 0
 Constraint_maintain_upgrade_wide_node4node11_3: - C_wide_node4node11_t2
                                 - M_wide_node4node11_t2
                                 + M_wide_node4node11_t3 - U_node4node11_t2
                                 <= 0
 Constraint_maintain_upgrade_wide_node4node6_3: - C_wide_node4node6_t2
                                 - M_wide_node4node6_t2 + M_wide_node4node6_t3
                                 - U_node4node6_t2 <= 0
 Constraint_maintain_upgrade_wide_node4node13_3: - C_wide_node4node13_t2
                                 - M_wide_node4node13_t2
                                 + M_wide_node4node13_t3 - U_node4node13_t2
                                 <= 0
 Constraint_maintain_upgrade_wide_node4node14_3: - C_wide_node4node14_t2
                                 - M_wide_node4node14_t2
                                 + M_wide_node4node14_t3 - U_node4node14_t2
                                 <= 0
 Constraint_maintain_upgrade_wide_node5node8_3: - C_wide_node5node8_t2
                                 - M_wide_node5node8_t2 + M_wide_node5node8_t3
                                 - U_node5node8_t2 <= 0
 Constraint_maintain_upgrade_wide_node5node13_3: - C_wide_node5node13_t2
                                 - M_wide_node5node13_t2
                                 + M_wide_node5node13_t3 - U_node5node13_t2
                                 <= 0
 Constraint_maintain_upgrade_wide_node6node10_3: - C_wide_node6node10_t2
                                 - M_wide_node6node10_t2
                                 + M_wide_node6node10_t3 - U_node6node10_t2
                                 <= 0
 Constraint_maintain_upgrade_wide_node6node9_3: - C_wide_node6node9_t2
                                 - M_wide_node6node9_t2 + M_wide_node6node9_t3
                                 - U_node6node9_t2 <= 0
 Constraint_maintain_upgrade_wide_node6node13_3: - C_wide_node6node13_t2
                                 - M_wide_node6node13_t2
                                 + M_wide_node6node13_t3 - U_node6node13_t2
                                 <= 0
 Constraint_maintain_upgrade_wide_node6node14_3: - C_wide_node6node14_t2
                                 - M_wide_node6node14_t2
                                 + M_wide_node6node14_t3 - U_node6node14_t2
                                 <= 0
 Constraint_maintain_upgrade_wide_node7node10_3: - C_wide_node7node10_t2
                                 - M_wide_node7node10_t2
                                 + M_wide_node7node10_t3 - U_node7node10_t2
                                 <= 0
 Constraint_maintain_upgrade_wide_node7node8_3: - C_wide_node7node8_t2
                                 - M_wide_node7node8_t2 + M_wide_node7node8_t3
                                 - U_node7node8_t2 <= 0
 Constraint_maintain_upgrade_wide_node7node12_3: - C_wide_node7node12_t2
                                 - M_wide_node7node12_t2
                                 + M_wide_node7node12_t3 - U_node7node12_t2
                                 <= 0
 Constraint_maintain_upgrade_wide_node7node13_3: - C_wide_node7node13_t2
                                 - M_wide_node7node13_t2
                                 + M_wide_node7node13_t3 - U_node7node13_t2
                                 <= 0
 Constraint_maintain_upgrade_wide_node8node12_3: - C_wide_node8node12_t2
                                 - M_wide_node8node12_t2
                                 + M_wide_node8node12_t3 - U_node8node12_t2
                                 <= 0
 Constraint_maintain_upgrade_wide_node8node13_3: - C_wide_node8node13_t2
                                 - M_wide_node8node13_t2
                                 + M_wide_node8node13_t3 - U_node8node13_t2
                                 <= 0
 Constraint_maintain_upgrade_wide_node9node11_3: - C_wide_node9node11_t2
                                 - M_wide_node9node11_t2
                                 + M_wide_node9node11_t3 - U_node9node11_t2
                                 <= 0
 Constraint_maintain_upgrade_wide_node9node14_3: - C_wide_node9node14_t2
                                 - M_wide_node9node14_t2
                                 + M_wide_node9node14_t3 - U_node9node14_t2
                                 <= 0
 Constraint_maintain_upgrade_wide_node10node13_3: - C_wide_node10node13_t2
                                 - M_wide_node10node13_t2
                                 + M_wide_node10node13_t3 - U_node10node13_t2
                                 <= 0
 Constraint_maintain_upgrade_wide_node11node14_3: - C_wide_node11node14_t2
                                 - M_wide_node11node14_t2
                                 + M_wide_node11node14_t3 - U_node11node14_t2
                                 <= 0
 Constraint_maintain_upgrade_wide_node1node3_4: - C_wide_node1node3_t3
                                 - M_wide_node1node3_t3 + M_wide_node1node3_t4
                                 - U_node1node3_t3 <= 0
 Constraint_maintain_upgrade_wide_node1node2_4: - C_wide_node1node2_t3
                                 - M_wide_node1node2_t3 + M_wide_node1node2_t4
                                 - U_node1node2_t3 <= 0
 Constraint_maintain_upgrade_wide_node1node7_4: - C_wide_node1node7_t3
                                 - M_wide_node1node7_t3 + M_wide_node1node7_t4
                                 - U_node1node7_t3 <= 0
 Constraint_maintain_upgrade_wide_node1node12_4: - C_wide_node1node12_t3
                                 - M_wide_node1node12_t3
                                 + M_wide_node1node12_t4 - U_node1node12_t3
                                 <= 0
 Constraint_maintain_upgrade_wide_node1node15_4: - C_wide_node1node15_t3
                                 - M_wide_node1node15_t3
                                 + M_wide_node1node15_t4 - U_node1node15_t3
                                 <= 0
 Constraint_maintain_upgrade_wide_node2node3_4: - C_wide_node2node3_t3
                                 - M_wide_node2node3_t3 + M_wide_node2node3_t4
                                 - U_node2node3_t3 <= 0
 Constraint_maintain_upgrade_wide_node2node12_4: - C_wide_node2node12_t3
                                 - M_wide_node2node12_t3
                                 + M_wide_node2node12_t4 - U_node2node12_t3
                                 <= 0
 Constraint_maintain_upgrade_wide_node2node15_4: - C_wide_node2node15_t3
                                 - M_wide_node2node15_t3
                                 + M_wide_node2node15_t4 - U_node2node15_t3
                                 <= 0
 Constraint_maintain_upgrade_wide_node3node8_4: - C_wide_node3node8_t3
                                 - M_wide_node3node8_t3 + M_wide_node3node8_t4
                                 - U_node3node8_t3 <= 0
 Constraint_maintain_upgrade_wide_node3node12_4: - C_wide_node3node12_t3
                                 - M_wide_node3node12_t3
                                 + M_wide_node3node12_t4 - U_node3node12_t3
                                 <= 0
 Constraint_maintain_upgrade_wide_node3node15_4: - C_wide_node3node15_t3
                                 - M_wide_node3node15_t3
                                 + M_wide_node3node15_t4 - U_node3node15_t3
                                 <= 0
 Constraint_maintain_upgrade_wide_node4node5_4: - C_wide_node4node5_t3
                                 - M_wide_node4node5_t3 + M_wide_node4node5_t4
                                 - U_node4node5_t3 <= 0
 Constraint_maintain_upgrade_wide_node4node11_4: - C_wide_node4node11_t3
                                 - M_wide_node4node11_t3
                                 + M_wide_node4node11_t4 - U_node4node11_t3
                                 <= 0
 Constraint_maintain_upgrade_wide_node4node6_4: - C_wide_node4node6_t3
                                 - M_wide_node4node6_t3 + M_wide_node4node6_t4
                                 - U_node4node6_t3 <= 0
 Constraint_maintain_upgrade_wide_node4node13_4: - C_wide_node4node13_t3
                                 - M_wide_node4node13_t3
                                 + M_wide_node4node13_t4 - U_node4node13_t3
                                 <= 0
 Constraint_maintain_upgrade_wide_node4node14_4: - C_wide_node4node14_t3
                                 - M_wide_node4node14_t3
                                 + M_wide_node4node14_t4 - U_node4node14_t3
                                 <= 0
 Constraint_maintain_upgrade_wide_node5node8_4: - C_wide_node5node8_t3
                                 - M_wide_node5node8_t3 + M_wide_node5node8_t4
                                 - U_node5node8_t3 <= 0
 Constraint_maintain_upgrade_wide_node5node13_4: - C_wide_node5node13_t3
                                 - M_wide_node5node13_t3
                                 + M_wide_node5node13_t4 - U_node5node13_t3
                                 <= 0
 Constraint_maintain_upgrade_wide_node6node10_4: - C_wide_node6node10_t3
                                 - M_wide_node6node10_t3
                                 + M_wide_node6node10_t4 - U_node6node10_t3
                                 <= 0
 Constraint_maintain_upgrade_wide_node6node9_4: - C_wide_node6node9_t3
                                 - M_wide_node6node9_t3 + M_wide_node6node9_t4
                                 - U_node6node9_t3 <= 0
 Constraint_maintain_upgrade_wide_node6node13_4: - C_wide_node6node13_t3
                                 - M_wide_node6node13_t3
                                 + M_wide_node6node13_t4 - U_node6node13_t3
                                 <= 0
 Constraint_maintain_upgrade_wide_node6node14_4: - C_wide_node6node14_t3
                                 - M_wide_node6node14_t3
                                 + M_wide_node6node14_t4 - U_node6node14_t3
                                 <= 0
 Constraint_maintain_upgrade_wide_node7node10_4: - C_wide_node7node10_t3
                                 - M_wide_node7node10_t3
                                 + M_wide_node7node10_t4 - U_node7node10_t3
                                 <= 0
 Constraint_maintain_upgrade_wide_node7node8_4: - C_wide_node7node8_t3
                                 - M_wide_node7node8_t3 + M_wide_node7node8_t4
                                 - U_node7node8_t3 <= 0
 Constraint_maintain_upgrade_wide_node7node12_4: - C_wide_node7node12_t3
                                 - M_wide_node7node12_t3
                                 + M_wide_node7node12_t4 - U_node7node12_t3
                                 <= 0
 Constraint_maintain_upgrade_wide_node7node13_4: - C_wide_node7node13_t3
                                 - M_wide_node7node13_t3
                                 + M_wide_node7node13_t4 - U_node7node13_t3
                                 <= 0
 Constraint_maintain_upgrade_wide_node8node12_4: - C_wide_node8node12_t3
                                 - M_wide_node8node12_t3
                                 + M_wide_node8node12_t4 - U_node8node12_t3
                                 <= 0
 Constraint_maintain_upgrade_wide_node8node13_4: - C_wide_node8node13_t3
                                 - M_wide_node8node13_t3
                                 + M_wide_node8node13_t4 - U_node8node13_t3
                                 <= 0
 Constraint_maintain_upgrade_wide_node9node11_4: - C_wide_node9node11_t3
                                 - M_wide_node9node11_t3
                                 + M_wide_node9node11_t4 - U_node9node11_t3
                                 <= 0
 Constraint_maintain_upgrade_wide_node9node14_4: - C_wide_node9node14_t3
                                 - M_wide_node9node14_t3
                                 + M_wide_node9node14_t4 - U_node9node14_t3
                                 <= 0
 Constraint_maintain_upgrade_wide_node10node13_4: - C_wide_node10node13_t3
                                 - M_wide_node10node13_t3
                                 + M_wide_node10node13_t4 - U_node10node13_t3
                                 <= 0
 Constraint_maintain_upgrade_wide_node11node14_4: - C_wide_node11node14_t3
                                 - M_wide_node11node14_t3
                                 + M_wide_node11node14_t4 - U_node11node14_t3
                                 <= 0
 Constraint_maintain_upgrade_wide_node1node3_5: - C_wide_node1node3_t4
                                 - M_wide_node1node3_t4 + M_wide_node1node3_t5
                                 - U_node1node3_t4 <= 0
 Constraint_maintain_upgrade_wide_node1node2_5: - C_wide_node1node2_t4
                                 - M_wide_node1node2_t4 + M_wide_node1node2_t5
                                 - U_node1node2_t4 <= 0
 Constraint_maintain_upgrade_wide_node1node7_5: - C_wide_node1node7_t4
                                 - M_wide_node1node7_t4 + M_wide_node1node7_t5
                                 - U_node1node7_t4 <= 0
 Constraint_maintain_upgrade_wide_node1node12_5: - C_wide_node1node12_t4
                                 - M_wide_node1node12_t4
                                 + M_wide_node1node12_t5 - U_node1node12_t4
                                 <= 0
 Constraint_maintain_upgrade_wide_node1node15_5: - C_wide_node1node15_t4
                                 - M_wide_node1node15_t4
                                 + M_wide_node1node15_t5 - U_node1node15_t4
                                 <= 0
 Constraint_maintain_upgrade_wide_node2node3_5: - C_wide_node2node3_t4
                                 - M_wide_node2node3_t4 + M_wide_node2node3_t5
                                 - U_node2node3_t4 <= 0
 Constraint_maintain_upgrade_wide_node2node12_5: - C_wide_node2node12_t4
                                 - M_wide_node2node12_t4
                                 + M_wide_node2node12_t5 - U_node2node12_t4
                                 <= 0
 Constraint_maintain_upgrade_wide_node2node15_5: - C_wide_node2node15_t4
                                 - M_wide_node2node15_t4
                                 + M_wide_node2node15_t5 - U_node2node15_t4
                                 <= 0
 Constraint_maintain_upgrade_wide_node3node8_5: - C_wide_node3node8_t4
                                 - M_wide_node3node8_t4 + M_wide_node3node8_t5
                                 - U_node3node8_t4 <= 0
 Constraint_maintain_upgrade_wide_node3node12_5: - C_wide_node3node12_t4
                                 - M_wide_node3node12_t4
                                 + M_wide_node3node12_t5 - U_node3node12_t4
                                 <= 0
 Constraint_maintain_upgrade_wide_node3node15_5: - C_wide_node3node15_t4
                                 - M_wide_node3node15_t4
                                 + M_wide_node3node15_t5 - U_node3node15_t4
                                 <= 0
 Constraint_maintain_upgrade_wide_node4node5_5: - C_wide_node4node5_t4
                                 - M_wide_node4node5_t4 + M_wide_node4node5_t5
                                 - U_node4node5_t4 <= 0
 Constraint_maintain_upgrade_wide_node4node11_5: - C_wide_node4node11_t4
                                 - M_wide_node4node11_t4
                                 + M_wide_node4node11_t5 - U_node4node11_t4
                                 <= 0
 Constraint_maintain_upgrade_wide_node4node6_5: - C_wide_node4node6_t4
                                 - M_wide_node4node6_t4 + M_wide_node4node6_t5
                                 - U_node4node6_t4 <= 0
 Constraint_maintain_upgrade_wide_node4node13_5: - C_wide_node4node13_t4
                                 - M_wide_node4node13_t4
                                 + M_wide_node4node13_t5 - U_node4node13_t4
                                 <= 0
 Constraint_maintain_upgrade_wide_node4node14_5: - C_wide_node4node14_t4
                                 - M_wide_node4node14_t4
                                 + M_wide_node4node14_t5 - U_node4node14_t4
                                 <= 0
 Constraint_maintain_upgrade_wide_node5node8_5: - C_wide_node5node8_t4
                                 - M_wide_node5node8_t4 + M_wide_node5node8_t5
                                 - U_node5node8_t4 <= 0
 Constraint_maintain_upgrade_wide_node5node13_5: - C_wide_node5node13_t4
                                 - M_wide_node5node13_t4
                                 + M_wide_node5node13_t5 - U_node5node13_t4
                                 <= 0
 Constraint_maintain_upgrade_wide_node6node10_5: - C_wide_node6node10_t4
                                 - M_wide_node6node10_t4
                                 + M_wide_node6node10_t5 - U_node6node10_t4
                                 <= 0
 Constraint_maintain_upgrade_wide_node6node9_5: - C_wide_node6node9_t4
                                 - M_wide_node6node9_t4 + M_wide_node6node9_t5
                                 - U_node6node9_t4 <= 0
 Constraint_maintain_upgrade_wide_node6node13_5: - C_wide_node6node13_t4
                                 - M_wide_node6node13_t4
                                 + M_wide_node6node13_t5 - U_node6node13_t4
                                 <= 0
 Constraint_maintain_upgrade_wide_node6node14_5: - C_wide_node6node14_t4
                                 - M_wide_node6node14_t4
                                 + M_wide_node6node14_t5 - U_node6node14_t4
                                 <= 0
 Constraint_maintain_upgrade_wide_node7node10_5: - C_wide_node7node10_t4
                                 - M_wide_node7node10_t4
                                 + M_wide_node7node10_t5 - U_node7node10_t4
                                 <= 0
 Constraint_maintain_upgrade_wide_node7node8_5: - C_wide_node7node8_t4
                                 - M_wide_node7node8_t4 + M_wide_node7node8_t5
                                 - U_node7node8_t4 <= 0
 Constraint_maintain_upgrade_wide_node7node12_5: - C_wide_node7node12_t4
                                 - M_wide_node7node12_t4
                                 + M_wide_node7node12_t5 - U_node7node12_t4
                                 <= 0
 Constraint_maintain_upgrade_wide_node7node13_5: - C_wide_node7node13_t4
                                 - M_wide_node7node13_t4
                                 + M_wide_node7node13_t5 - U_node7node13_t4
                                 <= 0
 Constraint_maintain_upgrade_wide_node8node12_5: - C_wide_node8node12_t4
                                 - M_wide_node8node12_t4
                                 + M_wide_node8node12_t5 - U_node8node12_t4
                                 <= 0
 Constraint_maintain_upgrade_wide_node8node13_5: - C_wide_node8node13_t4
                                 - M_wide_node8node13_t4
                                 + M_wide_node8node13_t5 - U_node8node13_t4
                                 <= 0
 Constraint_maintain_upgrade_wide_node9node11_5: - C_wide_node9node11_t4
                                 - M_wide_node9node11_t4
                                 + M_wide_node9node11_t5 - U_node9node11_t4
                                 <= 0
 Constraint_maintain_upgrade_wide_node9node14_5: - C_wide_node9node14_t4
                                 - M_wide_node9node14_t4
                                 + M_wide_node9node14_t5 - U_node9node14_t4
                                 <= 0
 Constraint_maintain_upgrade_wide_node10node13_5: - C_wide_node10node13_t4
                                 - M_wide_node10node13_t4
                                 + M_wide_node10node13_t5 - U_node10node13_t4
                                 <= 0
 Constraint_maintain_upgrade_wide_node11node14_5: - C_wide_node11node14_t4
                                 - M_wide_node11node14_t4
                                 + M_wide_node11node14_t5 - U_node11node14_t4
                                 <= 0
Bounds
      C_timber_node1node3_t0 = 0
 0 <= C_timber_node1node3_t1 <= 1
 0 <= C_timber_node1node3_t2 <= 1
 0 <= C_timber_node1node3_t3 <= 1
 0 <= C_timber_node1node3_t4 <= 1
 0 <= C_timber_node1node3_t5 <= 1
      C_wide_node1node3_t0 = 0
 0 <= C_wide_node1node3_t1 <= 1
 0 <= C_wide_node1node3_t2 <= 1
 0 <= C_wide_node1node3_t3 <= 1
 0 <= C_wide_node1node3_t4 <= 1
 0 <= C_wide_node1node3_t5 <= 1
      C_timber_node1node2_t0 = 0
 0 <= C_timber_node1node2_t1 <= 1
 0 <= C_timber_node1node2_t2 <= 1
 0 <= C_timber_node1node2_t3 <= 1
 0 <= C_timber_node1node2_t4 <= 1
 0 <= C_timber_node1node2_t5 <= 1
      C_wide_node1node2_t0 = 0
 0 <= C_wide_node1node2_t1 <= 1
 0 <= C_wide_node1node2_t2 <= 1
 0 <= C_wide_node1node2_t3 <= 1
 0 <= C_wide_node1node2_t4 <= 1
 0 <= C_wide_node1node2_t5 <= 1
      C_timber_node1node7_t0 = 0
 0 <= C_timber_node1node7_t1 <= 1
 0 <= C_timber_node1node7_t2 <= 1
 0 <= C_timber_node1node7_t3 <= 1
 0 <= C_timber_node1node7_t4 <= 1
 0 <= C_timber_node1node7_t5 <= 1
      C_wide_node1node7_t0 = 0
 0 <= C_wide_node1node7_t1 <= 1
 0 <= C_wide_node1node7_t2 <= 1
 0 <= C_wide_node1node7_t3 <= 1
 0 <= C_wide_node1node7_t4 <= 1
 0 <= C_wide_node1node7_t5 <= 1
      C_timber_node1node12_t0 = 0
 0 <= C_timber_node1node12_t1 <= 1
 0 <= C_timber_node1node12_t2 <= 1
 0 <= C_timber_node1node12_t3 <= 1
 0 <= C_timber_node1node12_t4 <= 1
 0 <= C_timber_node1node12_t5 <= 1
      C_wide_node1node12_t0 = 0
 0 <= C_wide_node1node12_t1 <= 1
 0 <= C_wide_node1node12_t2 <= 1
 0 <= C_wide_node1node12_t3 <= 1
 0 <= C_wide_node1node12_t4 <= 1
 0 <= C_wide_node1node12_t5 <= 1
      C_timber_node1node15_t0 = 0
 0 <= C_timber_node1node15_t1 <= 1
 0 <= C_timber_node1node15_t2 <= 1
 0 <= C_timber_node1node15_t3 <= 1
 0 <= C_timber_node1node15_t4 <= 1
 0 <= C_timber_node1node15_t5 <= 1
      C_wide_node1node15_t0 = 0
 0 <= C_wide_node1node15_t1 <= 1
 0 <= C_wide_node1node15_t2 <= 1
 0 <= C_wide_node1node15_t3 <= 1
 0 <= C_wide_node1node15_t4 <= 1
 0 <= C_wide_node1node15_t5 <= 1
      C_timber_node2node3_t0 = 0
 0 <= C_timber_node2node3_t1 <= 1
 0 <= C_timber_node2node3_t2 <= 1
 0 <= C_timber_node2node3_t3 <= 1
 0 <= C_timber_node2node3_t4 <= 1
 0 <= C_timber_node2node3_t5 <= 1
      C_wide_node2node3_t0 = 0
 0 <= C_wide_node2node3_t1 <= 1
 0 <= C_wide_node2node3_t2 <= 1
 0 <= C_wide_node2node3_t3 <= 1
 0 <= C_wide_node2node3_t4 <= 1
 0 <= C_wide_node2node3_t5 <= 1
      C_timber_node2node12_t0 = 0
 0 <= C_timber_node2node12_t1 <= 1
 0 <= C_timber_node2node12_t2 <= 1
 0 <= C_timber_node2node12_t3 <= 1
 0 <= C_timber_node2node12_t4 <= 1
 0 <= C_timber_node2node12_t5 <= 1
      C_wide_node2node12_t0 = 0
 0 <= C_wide_node2node12_t1 <= 1
 0 <= C_wide_node2node12_t2 <= 1
 0 <= C_wide_node2node12_t3 <= 1
 0 <= C_wide_node2node12_t4 <= 1
 0 <= C_wide_node2node12_t5 <= 1
      C_timber_node2node15_t0 = 0
 0 <= C_timber_node2node15_t1 <= 1
 0 <= C_timber_node2node15_t2 <= 1
 0 <= C_timber_node2node15_t3 <= 1
 0 <= C_timber_node2node15_t4 <= 1
 0 <= C_timber_node2node15_t5 <= 1
      C_wide_node2node15_t0 = 0
 0 <= C_wide_node2node15_t1 <= 1
 0 <= C_wide_node2node15_t2 <= 1
 0 <= C_wide_node2node15_t3 <= 1
 0 <= C_wide_node2node15_t4 <= 1
 0 <= C_wide_node2node15_t5 <= 1
      C_timber_node3node8_t0 = 0
 0 <= C_timber_node3node8_t1 <= 1
 0 <= C_timber_node3node8_t2 <= 1
 0 <= C_timber_node3node8_t3 <= 1
 0 <= C_timber_node3node8_t4 <= 1
 0 <= C_timber_node3node8_t5 <= 1
      C_wide_node3node8_t0 = 0
 0 <= C_wide_node3node8_t1 <= 1
 0 <= C_wide_node3node8_t2 <= 1
 0 <= C_wide_node3node8_t3 <= 1
 0 <= C_wide_node3node8_t4 <= 1
 0 <= C_wide_node3node8_t5 <= 1
      C_timber_node3node12_t0 = 0
 0 <= C_timber_node3node12_t1 <= 1
 0 <= C_timber_node3node12_t2 <= 1
 0 <= C_timber_node3node12_t3 <= 1
 0 <= C_timber_node3node12_t4 <= 1
 0 <= C_timber_node3node12_t5 <= 1
      C_wide_node3node12_t0 = 0
 0 <= C_wide_node3node12_t1 <= 1
 0 <= C_wide_node3node12_t2 <= 1
 0 <= C_wide_node3node12_t3 <= 1
 0 <= C_wide_node3node12_t4 <= 1
 0 <= C_wide_node3node12_t5 <= 1
      C_timber_node3node15_t0 = 0
 0 <= C_timber_node3node15_t1 <= 1
 0 <= C_timber_node3node15_t2 <= 1
 0 <= C_timber_node3node15_t3 <= 1
 0 <= C_timber_node3node15_t4 <= 1
 0 <= C_timber_node3node15_t5 <= 1
      C_wide_node3node15_t0 = 0
 0 <= C_wide_node3node15_t1 <= 1
 0 <= C_wide_node3node15_t2 <= 1
 0 <= C_wide_node3node15_t3 <= 1
 0 <= C_wide_node3node15_t4 <= 1
 0 <= C_wide_node3node15_t5 <= 1
      C_timber_node4node5_t0 = 0
 0 <= C_timber_node4node5_t1 <= 1
 0 <= C_timber_node4node5_t2 <= 1
 0 <= C_timber_node4node5_t3 <= 1
 0 <= C_timber_node4node5_t4 <= 1
 0 <= C_timber_node4node5_t5 <= 1
      C_wide_node4node5_t0 = 0
 0 <= C_wide_node4node5_t1 <= 1
 0 <= C_wide_node4node5_t2 <= 1
 0 <= C_wide_node4node5_t3 <= 1
 0 <= C_wide_node4node5_t4 <= 1
 0 <= C_wide_node4node5_t5 <= 1
      C_timber_node4node11_t0 = 0
 0 <= C_timber_node4node11_t1 <= 1
 0 <= C_timber_node4node11_t2 <= 1
 0 <= C_timber_node4node11_t3 <= 1
 0 <= C_timber_node4node11_t4 <= 1
 0 <= C_timber_node4node11_t5 <= 1
      C_wide_node4node11_t0 = 0
 0 <= C_wide_node4node11_t1 <= 1
 0 <= C_wide_node4node11_t2 <= 1
 0 <= C_wide_node4node11_t3 <= 1
 0 <= C_wide_node4node11_t4 <= 1
 0 <= C_wide_node4node11_t5 <= 1
      C_timber_node4node6_t0 = 0
 0 <= C_timber_node4node6_t1 <= 1
 0 <= C_timber_node4node6_t2 <= 1
 0 <= C_timber_node4node6_t3 <= 1
 0 <= C_timber_node4node6_t4 <= 1
 0 <= C_timber_node4node6_t5 <= 1
      C_wide_node4node6_t0 = 0
 0 <= C_wide_node4node6_t1 <= 1
 0 <= C_wide_node4node6_t2 <= 1
 0 <= C_wide_node4node6_t3 <= 1
 0 <= C_wide_node4node6_t4 <= 1
 0 <= C_wide_node4node6_t5 <= 1
      C_timber_node4node13_t0 = 0
 0 <= C_timber_node4node13_t1 <= 1
 0 <= C_timber_node4node13_t2 <= 1
 0 <= C_timber_node4node13_t3 <= 1
 0 <= C_timber_node4node13_t4 <= 1
 0 <= C_timber_node4node13_t5 <= 1
      C_wide_node4node13_t0 = 0
 0 <= C_wide_node4node13_t1 <= 1
 0 <= C_wide_node4node13_t2 <= 1
 0 <= C_wide_node4node13_t3 <= 1
 0 <= C_wide_node4node13_t4 <= 1
 0 <= C_wide_node4node13_t5 <= 1
      C_timber_node4node14_t0 = 0
 0 <= C_timber_node4node14_t1 <= 1
 0 <= C_timber_node4node14_t2 <= 1
 0 <= C_timber_node4node14_t3 <= 1
 0 <= C_timber_node4node14_t4 <= 1
 0 <= C_timber_node4node14_t5 <= 1
      C_wide_node4node14_t0 = 0
 0 <= C_wide_node4node14_t1 <= 1
 0 <= C_wide_node4node14_t2 <= 1
 0 <= C_wide_node4node14_t3 <= 1
 0 <= C_wide_node4node14_t4 <= 1
 0 <= C_wide_node4node14_t5 <= 1
      C_timber_node5node8_t0 = 0
 0 <= C_timber_node5node8_t1 <= 1
 0 <= C_timber_node5node8_t2 <= 1
 0 <= C_timber_node5node8_t3 <= 1
 0 <= C_timber_node5node8_t4 <= 1
 0 <= C_timber_node5node8_t5 <= 1
      C_wide_node5node8_t0 = 0
 0 <= C_wide_node5node8_t1 <= 1
 0 <= C_wide_node5node8_t2 <= 1
 0 <= C_wide_node5node8_t3 <= 1
 0 <= C_wide_node5node8_t4 <= 1
 0 <= C_wide_node5node8_t5 <= 1
      C_timber_node5node13_t0 = 0
 0 <= C_timber_node5node13_t1 <= 1
 0 <= C_timber_node5node13_t2 <= 1
 0 <= C_timber_node5node13_t3 <= 1
 0 <= C_timber_node5node13_t4 <= 1
 0 <= C_timber_node5node13_t5 <= 1
      C_wide_node5node13_t0 = 0
 0 <= C_wide_node5node13_t1 <= 1
 0 <= C_wide_node5node13_t2 <= 1
 0 <= C_wide_node5node13_t3 <= 1
 0 <= C_wide_node5node13_t4 <= 1
 0 <= C_wide_node5node13_t5 <= 1
      C_timber_node6node10_t0 = 0
 0 <= C_timber_node6node10_t1 <= 1
 0 <= C_timber_node6node10_t2 <= 1
 0 <= C_timber_node6node10_t3 <= 1
 0 <= C_timber_node6node10_t4 <= 1
 0 <= C_timber_node6node10_t5 <= 1
      C_wide_node6node10_t0 = 0
 0 <= C_wide_node6node10_t1 <= 1
 0 <= C_wide_node6node10_t2 <= 1
 0 <= C_wide_node6node10_t3 <= 1
 0 <= C_wide_node6node10_t4 <= 1
 0 <= C_wide_node6node10_t5 <= 1
      C_timber_node6node9_t0 = 0
 0 <= C_timber_node6node9_t1 <= 1
 0 <= C_timber_node6node9_t2 <= 1
 0 <= C_timber_node6node9_t3 <= 1
 0 <= C_timber_node6node9_t4 <= 1
 0 <= C_timber_node6node9_t5 <= 1
      C_wide_node6node9_t0 = 0
 0 <= C_wide_node6node9_t1 <= 1
 0 <= C_wide_node6node9_t2 <= 1
 0 <= C_wide_node6node9_t3 <= 1
 0 <= C_wide_node6node9_t4 <= 1
 0 <= C_wide_node6node9_t5 <= 1
      C_timber_node6node13_t0 = 0
 0 <= C_timber_node6node13_t1 <= 1
 0 <= C_timber_node6node13_t2 <= 1
 0 <= C_timber_node6node13_t3 <= 1
 0 <= C_timber_node6node13_t4 <= 1
 0 <= C_timber_node6node13_t5 <= 1
      C_wide_node6node13_t0 = 0
 0 <= C_wide_node6node13_t1 <= 1
 0 <= C_wide_node6node13_t2 <= 1
 0 <= C_wide_node6node13_t3 <= 1
 0 <= C_wide_node6node13_t4 <= 1
 0 <= C_wide_node6node13_t5 <= 1
      C_timber_node6node14_t0 = 0
 0 <= C_timber_node6node14_t1 <= 1
 0 <= C_timber_node6node14_t2 <= 1
 0 <= C_timber_node6node14_t3 <= 1
 0 <= C_timber_node6node14_t4 <= 1
 0 <= C_timber_node6node14_t5 <= 1
      C_wide_node6node14_t0 = 0
 0 <= C_wide_node6node14_t1 <= 1
 0 <= C_wide_node6node14_t2 <= 1
 0 <= C_wide_node6node14_t3 <= 1
 0 <= C_wide_node6node14_t4 <= 1
 0 <= C_wide_node6node14_t5 <= 1
      C_timber_node7node10_t0 = 0
 0 <= C_timber_node7node10_t1 <= 1
 0 <= C_timber_node7node10_t2 <= 1
 0 <= C_timber_node7node10_t3 <= 1
 0 <= C_timber_node7node10_t4 <= 1
 0 <= C_timber_node7node10_t5 <= 1
      C_wide_node7node10_t0 = 0
 0 <= C_wide_node7node10_t1 <= 1
 0 <= C_wide_node7node10_t2 <= 1
 0 <= C_wide_node7node10_t3 <= 1
 0 <= C_wide_node7node10_t4 <= 1
 0 <= C_wide_node7node10_t5 <= 1
      C_timber_node7node8_t0 = 0
 0 <= C_timber_node7node8_t1 <= 1
 0 <= C_timber_node7node8_t2 <= 1
 0 <= C_timber_node7node8_t3 <= 1
 0 <= C_timber_node7node8_t4 <= 1
 0 <= C_timber_node7node8_t5 <= 1
      C_wide_node7node8_t0 = 0
 0 <= C_wide_node7node8_t1 <= 1
 0 <= C_wide_node7node8_t2 <= 1
 0 <= C_wide_node7node8_t3 <= 1
 0 <= C_wide_node7node8_t4 <= 1
 0 <= C_wide_node7node8_t5 <= 1
      C_timber_node7node12_t0 = 0
 0 <= C_timber_node7node12_t1 <= 1
 0 <= C_timber_node7node12_t2 <= 1
 0 <= C_timber_node7node12_t3 <= 1
 0 <= C_timber_node7node12_t4 <= 1
 0 <= C_timber_node7node12_t5 <= 1
      C_wide_node7node12_t0 = 0
 0 <= C_wide_node7node12_t1 <= 1
 0 <= C_wide_node7node12_t2 <= 1
 0 <= C_wide_node7node12_t3 <= 1
 0 <= C_wide_node7node12_t4 <= 1
 0 <= C_wide_node7node12_t5 <= 1
      C_timber_node7node13_t0 = 0
 0 <= C_timber_node7node13_t1 <= 1
 0 <= C_timber_node7node13_t2 <= 1
 0 <= C_timber_node7node13_t3 <= 1
 0 <= C_timber_node7node13_t4 <= 1
 0 <= C_timber_node7node13_t5 <= 1
      C_wide_node7node13_t0 = 0
 0 <= C_wide_node7node13_t1 <= 1
 0 <= C_wide_node7node13_t2 <= 1
 0 <= C_wide_node7node13_t3 <= 1
 0 <= C_wide_node7node13_t4 <= 1
 0 <= C_wide_node7node13_t5 <= 1
      C_timber_node8node12_t0 = 0
 0 <= C_timber_node8node12_t1 <= 1
 0 <= C_timber_node8node12_t2 <= 1
 0 <= C_timber_node8node12_t3 <= 1
 0 <= C_timber_node8node12_t4 <= 1
 0 <= C_timber_node8node12_t5 <= 1
      C_wide_node8node12_t0 = 0
 0 <= C_wide_node8node12_t1 <= 1
 0 <= C_wide_node8node12_t2 <= 1
 0 <= C_wide_node8node12_t3 <= 1
 0 <= C_wide_node8node12_t4 <= 1
 0 <= C_wide_node8node12_t5 <= 1
      C_timber_node8node13_t0 = 0
 0 <= C_timber_node8node13_t1 <= 1
 0 <= C_timber_node8node13_t2 <= 1
 0 <= C_timber_node8node13_t3 <= 1
 0 <= C_timber_node8node13_t4 <= 1
 0 <= C_timber_node8node13_t5 <= 1
      C_wide_node8node13_t0 = 0
 0 <= C_wide_node8node13_t1 <= 1
 0 <= C_wide_node8node13_t2 <= 1
 0 <= C_wide_node8node13_t3 <= 1
 0 <= C_wide_node8node13_t4 <= 1
 0 <= C_wide_node8node13_t5 <= 1
      C_timber_node9node11_t0 = 0
 0 <= C_timber_node9node11_t1 <= 1
 0 <= C_timber_node9node11_t2 <= 1
 0 <= C_timber_node9node11_t3 <= 1
 0 <= C_timber_node9node11_t4 <= 1
 0 <= C_timber_node9node11_t5 <= 1
      C_wide_node9node11_t0 = 0
 0 <= C_wide_node9node11_t1 <= 1
 0 <= C_wide_node9node11_t2 <= 1
 0 <= C_wide_node9node11_t3 <= 1
 0 <= C_wide_node9node11_t4 <= 1
 0 <= C_wide_node9node11_t5 <= 1
      C_timber_node9node14_t0 = 0
 0 <= C_timber_node9node14_t1 <= 1
 0 <= C_timber_node9node14_t2 <= 1
 0 <= C_timber_node9node14_t3 <= 1
 0 <= C_timber_node9node14_t4 <= 1
 0 <= C_timber_node9node14_t5 <= 1
      C_wide_node9node14_t0 = 0
 0 <= C_wide_node9node14_t1 <= 1
 0 <= C_wide_node9node14_t2 <= 1
 0 <= C_wide_node9node14_t3 <= 1
 0 <= C_wide_node9node14_t4 <= 1
 0 <= C_wide_node9node14_t5 <= 1
      C_timber_node10node13_t0 = 0
 0 <= C_timber_node10node13_t1 <= 1
 0 <= C_timber_node10node13_t2 <= 1
 0 <= C_timber_node10node13_t3 <= 1
 0 <= C_timber_node10node13_t4 <= 1
 0 <= C_timber_node10node13_t5 <= 1
      C_wide_node10node13_t0 = 0
 0 <= C_wide_node10node13_t1 <= 1
 0 <= C_wide_node10node13_t2 <= 1
 0 <= C_wide_node10node13_t3 <= 1
 0 <= C_wide_node10node13_t4 <= 1
 0 <= C_wide_node10node13_t5 <= 1
      C_timber_node11node14_t0 = 0
 0 <= C_timber_node11node14_t1 <= 1
 0 <= C_timber_node11node14_t2 <= 1
 0 <= C_timber_node11node14_t3 <= 1
 0 <= C_timber_node11node14_t4 <= 1
 0 <= C_timber_node11node14_t5 <= 1
      C_wide_node11node14_t0 = 0
 0 <= C_wide_node11node14_t1 <= 1
 0 <= C_wide_node11node14_t2 <= 1
 0 <= C_wide_node11node14_t3 <= 1
 0 <= C_wide_node11node14_t4 <= 1
 0 <= C_wide_node11node14_t5 <= 1
      M_timber_node1node3_t0 = 0
 0 <= M_timber_node1node3_t1 <= 1
 0 <= M_timber_node1node3_t2 <= 1
 0 <= M_timber_node1node3_t3 <= 1
 0 <= M_timber_node1node3_t4 <= 1
 0 <= M_timber_node1node3_t5 <= 1
      M_wide_node1node3_t0 = 0
 0 <= M_wide_node1node3_t1 <= 1
 0 <= M_wide_node1node3_t2 <= 1
 0 <= M_wide_node1node3_t3 <= 1
 0 <= M_wide_node1node3_t4 <= 1
 0 <= M_wide_node1node3_t5 <= 1
      M_timber_node1node2_t0 = 0
 0 <= M_timber_node1node2_t1 <= 1
 0 <= M_timber_node1node2_t2 <= 1
 0 <= M_timber_node1node2_t3 <= 1
 0 <= M_timber_node1node2_t4 <= 1
 0 <= M_timber_node1node2_t5 <= 1
      M_wide_node1node2_t0 = 0
 0 <= M_wide_node1node2_t1 <= 1
 0 <= M_wide_node1node2_t2 <= 1
 0 <= M_wide_node1node2_t3 <= 1
 0 <= M_wide_node1node2_t4 <= 1
 0 <= M_wide_node1node2_t5 <= 1
      M_timber_node1node7_t0 = 0
 0 <= M_timber_node1node7_t1 <= 1
 0 <= M_timber_node1node7_t2 <= 1
 0 <= M_timber_node1node7_t3 <= 1
 0 <= M_timber_node1node7_t4 <= 1
 0 <= M_timber_node1node7_t5 <= 1
      M_wide_node1node7_t0 = 0
 0 <= M_wide_node1node7_t1 <= 1
 0 <= M_wide_node1node7_t2 <= 1
 0 <= M_wide_node1node7_t3 <= 1
 0 <= M_wide_node1node7_t4 <= 1
 0 <= M_wide_node1node7_t5 <= 1
      M_timber_node1node12_t0 = 0
 0 <= M_timber_node1node12_t1 <= 1
 0 <= M_timber_node1node12_t2 <= 1
 0 <= M_timber_node1node12_t3 <= 1
 0 <= M_timber_node1node12_t4 <= 1
 0 <= M_timber_node1node12_t5 <= 1
      M_wide_node1node12_t0 = 0
 0 <= M_wide_node1node12_t1 <= 1
 0 <= M_wide_node1node12_t2 <= 1
 0 <= M_wide_node1node12_t3 <= 1
 0 <= M_wide_node1node12_t4 <= 1
 0 <= M_wide_node1node12_t5 <= 1
      M_timber_node1node15_t0 = 0
 0 <= M_timber_node1node15_t1 <= 1
 0 <= M_timber_node1node15_t2 <= 1
 0 <= M_timber_node1node15_t3 <= 1
 0 <= M_timber_node1node15_t4 <= 1
 0 <= M_timber_node1node15_t5 <= 1
      M_wide_node1node15_t0 = 0
 0 <= M_wide_node1node15_t1 <= 1
 0 <= M_wide_node1node15_t2 <= 1
 0 <= M_wide_node1node15_t3 <= 1
 0 <= M_wide_node1node15_t4 <= 1
 0 <= M_wide_node1node15_t5 <= 1
      M_timber_node2node3_t0 = 0
 0 <= M_timber_node2node3_t1 <= 1
 0 <= M_timber_node2node3_t2 <= 1
 0 <= M_timber_node2node3_t3 <= 1
 0 <= M_timber_node2node3_t4 <= 1
 0 <= M_timber_node2node3_t5 <= 1
      M_wide_node2node3_t0 = 0
 0 <= M_wide_node2node3_t1 <= 1
 0 <= M_wide_node2node3_t2 <= 1
 0 <= M_wide_node2node3_t3 <= 1
 0 <= M_wide_node2node3_t4 <= 1
 0 <= M_wide_node2node3_t5 <= 1
      M_timber_node2node12_t0 = 0
 0 <= M_timber_node2node12_t1 <= 1
 0 <= M_timber_node2node12_t2 <= 1
 0 <= M_timber_node2node12_t3 <= 1
 0 <= M_timber_node2node12_t4 <= 1
 0 <= M_timber_node2node12_t5 <= 1
      M_wide_node2node12_t0 = 0
 0 <= M_wide_node2node12_t1 <= 1
 0 <= M_wide_node2node12_t2 <= 1
 0 <= M_wide_node2node12_t3 <= 1
 0 <= M_wide_node2node12_t4 <= 1
 0 <= M_wide_node2node12_t5 <= 1
      M_timber_node2node15_t0 = 0
 0 <= M_timber_node2node15_t1 <= 1
 0 <= M_timber_node2node15_t2 <= 1
 0 <= M_timber_node2node15_t3 <= 1
 0 <= M_timber_node2node15_t4 <= 1
 0 <= M_timber_node2node15_t5 <= 1
      M_wide_node2node15_t0 = 0
 0 <= M_wide_node2node15_t1 <= 1
 0 <= M_wide_node2node15_t2 <= 1
 0 <= M_wide_node2node15_t3 <= 1
 0 <= M_wide_node2node15_t4 <= 1
 0 <= M_wide_node2node15_t5 <= 1
      M_timber_node3node8_t0 = 0
 0 <= M_timber_node3node8_t1 <= 1
 0 <= M_timber_node3node8_t2 <= 1
 0 <= M_timber_node3node8_t3 <= 1
 0 <= M_timber_node3node8_t4 <= 1
 0 <= M_timber_node3node8_t5 <= 1
      M_wide_node3node8_t0 = 0
 0 <= M_wide_node3node8_t1 <= 1
 0 <= M_wide_node3node8_t2 <= 1
 0 <= M_wide_node3node8_t3 <= 1
 0 <= M_wide_node3node8_t4 <= 1
 0 <= M_wide_node3node8_t5 <= 1
      M_timber_node3node12_t0 = 0
 0 <= M_timber_node3node12_t1 <= 1
 0 <= M_timber_node3node12_t2 <= 1
 0 <= M_timber_node3node12_t3 <= 1
 0 <= M_timber_node3node12_t4 <= 1
 0 <= M_timber_node3node12_t5 <= 1
      M_wide_node3node12_t0 = 0
 0 <= M_wide_node3node12_t1 <= 1
 0 <= M_wide_node3node12_t2 <= 1
 0 <= M_wide_node3node12_t3 <= 1
 0 <= M_wide_node3node12_t4 <= 1
 0 <= M_wide_node3node12_t5 <= 1
      M_timber_node3node15_t0 = 0
 0 <= M_timber_node3node15_t1 <= 1
 0 <= M_timber_node3node15_t2 <= 1
 0 <= M_timber_node3node15_t3 <= 1
 0 <= M_timber_node3node15_t4 <= 1
 0 <= M_timber_node3node15_t5 <= 1
      M_wide_node3node15_t0 = 0
 0 <= M_wide_node3node15_t1 <= 1
 0 <= M_wide_node3node15_t2 <= 1
 0 <= M_wide_node3node15_t3 <= 1
 0 <= M_wide_node3node15_t4 <= 1
 0 <= M_wide_node3node15_t5 <= 1
      M_timber_node4node5_t0 = 0
 0 <= M_timber_node4node5_t1 <= 1
 0 <= M_timber_node4node5_t2 <= 1
 0 <= M_timber_node4node5_t3 <= 1
 0 <= M_timber_node4node5_t4 <= 1
 0 <= M_timber_node4node5_t5 <= 1
      M_wide_node4node5_t0 = 0
 0 <= M_wide_node4node5_t1 <= 1
 0 <= M_wide_node4node5_t2 <= 1
 0 <= M_wide_node4node5_t3 <= 1
 0 <= M_wide_node4node5_t4 <= 1
 0 <= M_wide_node4node5_t5 <= 1
      M_timber_node4node11_t0 = 0
 0 <= M_timber_node4node11_t1 <= 1
 0 <= M_timber_node4node11_t2 <= 1
 0 <= M_timber_node4node11_t3 <= 1
 0 <= M_timber_node4node11_t4 <= 1
 0 <= M_timber_node4node11_t5 <= 1
      M_wide_node4node11_t0 = 0
 0 <= M_wide_node4node11_t1 <= 1
 0 <= M_wide_node4node11_t2 <= 1
 0 <= M_wide_node4node11_t3 <= 1
 0 <= M_wide_node4node11_t4 <= 1
 0 <= M_wide_node4node11_t5 <= 1
      M_timber_node4node6_t0 = 0
 0 <= M_timber_node4node6_t1 <= 1
 0 <= M_timber_node4node6_t2 <= 1
 0 <= M_timber_node4node6_t3 <= 1
 0 <= M_timber_node4node6_t4 <= 1
 0 <= M_timber_node4node6_t5 <= 1
      M_wide_node4node6_t0 = 0
 0 <= M_wide_node4node6_t1 <= 1
 0 <= M_wide_node4node6_t2 <= 1
 0 <= M_wide_node4node6_t3 <= 1
 0 <= M_wide_node4node6_t4 <= 1
 0 <= M_wide_node4node6_t5 <= 1
      M_timber_node4node13_t0 = 0
 0 <= M_timber_node4node13_t1 <= 1
 0 <= M_timber_node4node13_t2 <= 1
 0 <= M_timber_node4node13_t3 <= 1
 0 <= M_timber_node4node13_t4 <= 1
 0 <= M_timber_node4node13_t5 <= 1
      M_wide_node4node13_t0 = 0
 0 <= M_wide_node4node13_t1 <= 1
 0 <= M_wide_node4node13_t2 <= 1
 0 <= M_wide_node4node13_t3 <= 1
 0 <= M_wide_node4node13_t4 <= 1
 0 <= M_wide_node4node13_t5 <= 1
      M_timber_node4node14_t0 = 0
 0 <= M_timber_node4node14_t1 <= 1
 0 <= M_timber_node4node14_t2 <= 1
 0 <= M_timber_node4node14_t3 <= 1
 0 <= M_timber_node4node14_t4 <= 1
 0 <= M_timber_node4node14_t5 <= 1
      M_wide_node4node14_t0 = 0
 0 <= M_wide_node4node14_t1 <= 1
 0 <= M_wide_node4node14_t2 <= 1
 0 <= M_wide_node4node14_t3 <= 1
 0 <= M_wide_node4node14_t4 <= 1
 0 <= M_wide_node4node14_t5 <= 1
      M_timber_node5node8_t0 = 0
 0 <= M_timber_node5node8_t1 <= 1
 0 <= M_timber_node5node8_t2 <= 1
 0 <= M_timber_node5node8_t3 <= 1
 0 <= M_timber_node5node8_t4 <= 1
 0 <= M_timber_node5node8_t5 <= 1
      M_wide_node5node8_t0 = 0
 0 <= M_wide_node5node8_t1 <= 1
 0 <= M_wide_node5node8_t2 <= 1
 0 <= M_wide_node5node8_t3 <= 1
 0 <= M_wide_node5node8_t4 <= 1
 0 <= M_wide_node5node8_t5 <= 1
      M_timber_node5node13_t0 = 0
 0 <= M_timber_node5node13_t1 <= 1
 0 <= M_timber_node5node13_t2 <= 1
 0 <= M_timber_node5node13_t3 <= 1
 0 <= M_timber_node5node13_t4 <= 1
 0 <= M_timber_node5node13_t5 <= 1
      M_wide_node5node13_t0 = 0
 0 <= M_wide_node5node13_t1 <= 1
 0 <= M_wide_node5node13_t2 <= 1
 0 <= M_wide_node5node13_t3 <= 1
 0 <= M_wide_node5node13_t4 <= 1
 0 <= M_wide_node5node13_t5 <= 1
      M_timber_node6node10_t0 = 0
 0 <= M_timber_node6node10_t1 <= 1
 0 <= M_timber_node6node10_t2 <= 1
 0 <= M_timber_node6node10_t3 <= 1
 0 <= M_timber_node6node10_t4 <= 1
 0 <= M_timber_node6node10_t5 <= 1
      M_wide_node6node10_t0 = 0
 0 <= M_wide_node6node10_t1 <= 1
 0 <= M_wide_node6node10_t2 <= 1
 0 <= M_wide_node6node10_t3 <= 1
 0 <= M_wide_node6node10_t4 <= 1
 0 <= M_wide_node6node10_t5 <= 1
      M_timber_node6node9_t0 = 0
 0 <= M_timber_node6node9_t1 <= 1
 0 <= M_timber_node6node9_t2 <= 1
 0 <= M_timber_node6node9_t3 <= 1
 0 <= M_timber_node6node9_t4 <= 1
 0 <= M_timber_node6node9_t5 <= 1
      M_wide_node6node9_t0 = 0
 0 <= M_wide_node6node9_t1 <= 1
 0 <= M_wide_node6node9_t2 <= 1
 0 <= M_wide_node6node9_t3 <= 1
 0 <= M_wide_node6node9_t4 <= 1
 0 <= M_wide_node6node9_t5 <= 1
      M_timber_node6node13_t0 = 0
 0 <= M_timber_node6node13_t1 <= 1
 0 <= M_timber_node6node13_t2 <= 1
 0 <= M_timber_node6node13_t3 <= 1
 0 <= M_timber_node6node13_t4 <= 1
 0 <= M_timber_node6node13_t5 <= 1
      M_wide_node6node13_t0 = 0
 0 <= M_wide_node6node13_t1 <= 1
 0 <= M_wide_node6node13_t2 <= 1
 0 <= M_wide_node6node13_t3 <= 1
 0 <= M_wide_node6node13_t4 <= 1
 0 <= M_wide_node6node13_t5 <= 1
      M_timber_node6node14_t0 = 0
 0 <= M_timber_node6node14_t1 <= 1
 0 <= M_timber_node6node14_t2 <= 1
 0 <= M_timber_node6node14_t3 <= 1
 0 <= M_timber_node6node14_t4 <= 1
 0 <= M_timber_node6node14_t5 <= 1
      M_wide_node6node14_t0 = 0
 0 <= M_wide_node6node14_t1 <= 1
 0 <= M_wide_node6node14_t2 <= 1
 0 <= M_wide_node6node14_t3 <= 1
 0 <= M_wide_node6node14_t4 <= 1
 0 <= M_wide_node6node14_t5 <= 1
      M_timber_node7node10_t0 = 0
 0 <= M_timber_node7node10_t1 <= 1
 0 <= M_timber_node7node10_t2 <= 1
 0 <= M_timber_node7node10_t3 <= 1
 0 <= M_timber_node7node10_t4 <= 1
 0 <= M_timber_node7node10_t5 <= 1
      M_wide_node7node10_t0 = 0
 0 <= M_wide_node7node10_t1 <= 1
 0 <= M_wide_node7node10_t2 <= 1
 0 <= M_wide_node7node10_t3 <= 1
 0 <= M_wide_node7node10_t4 <= 1
 0 <= M_wide_node7node10_t5 <= 1
      M_timber_node7node8_t0 = 0
 0 <= M_timber_node7node8_t1 <= 1
 0 <= M_timber_node7node8_t2 <= 1
 0 <= M_timber_node7node8_t3 <= 1
 0 <= M_timber_node7node8_t4 <= 1
 0 <= M_timber_node7node8_t5 <= 1
      M_wide_node7node8_t0 = 0
 0 <= M_wide_node7node8_t1 <= 1
 0 <= M_wide_node7node8_t2 <= 1
 0 <= M_wide_node7node8_t3 <= 1
 0 <= M_wide_node7node8_t4 <= 1
 0 <= M_wide_node7node8_t5 <= 1
      M_timber_node7node12_t0 = 0
 0 <= M_timber_node7node12_t1 <= 1
 0 <= M_timber_node7node12_t2 <= 1
 0 <= M_timber_node7node12_t3 <= 1
 0 <= M_timber_node7node12_t4 <= 1
 0 <= M_timber_node7node12_t5 <= 1
      M_wide_node7node12_t0 = 0
 0 <= M_wide_node7node12_t1 <= 1
 0 <= M_wide_node7node12_t2 <= 1
 0 <= M_wide_node7node12_t3 <= 1
 0 <= M_wide_node7node12_t4 <= 1
 0 <= M_wide_node7node12_t5 <= 1
      M_timber_node7node13_t0 = 0
 0 <= M_timber_node7node13_t1 <= 1
 0 <= M_timber_node7node13_t2 <= 1
 0 <= M_timber_node7node13_t3 <= 1
 0 <= M_timber_node7node13_t4 <= 1
 0 <= M_timber_node7node13_t5 <= 1
      M_wide_node7node13_t0 = 0
 0 <= M_wide_node7node13_t1 <= 1
 0 <= M_wide_node7node13_t2 <= 1
 0 <= M_wide_node7node13_t3 <= 1
 0 <= M_wide_node7node13_t4 <= 1
 0 <= M_wide_node7node13_t5 <= 1
      M_timber_node8node12_t0 = 0
 0 <= M_timber_node8node12_t1 <= 1
 0 <= M_timber_node8node12_t2 <= 1
 0 <= M_timber_node8node12_t3 <= 1
 0 <= M_timber_node8node12_t4 <= 1
 0 <= M_timber_node8node12_t5 <= 1
      M_wide_node8node12_t0 = 0
 0 <= M_wide_node8node12_t1 <= 1
 0 <= M_wide_node8node12_t2 <= 1
 0 <= M_wide_node8node12_t3 <= 1
 0 <= M_wide_node8node12_t4 <= 1
 0 <= M_wide_node8node12_t5 <= 1
      M_timber_node8node13_t0 = 0
 0 <= M_timber_node8node13_t1 <= 1
 0 <= M_timber_node8node13_t2 <= 1
 0 <= M_timber_node8node13_t3 <= 1
 0 <= M_timber_node8node13_t4 <= 1
 0 <= M_timber_node8node13_t5 <= 1
      M_wide_node8node13_t0 = 0
 0 <= M_wide_node8node13_t1 <= 1
 0 <= M_wide_node8node13_t2 <= 1
 0 <= M_wide_node8node13_t3 <= 1
 0 <= M_wide_node8node13_t4 <= 1
 0 <= M_wide_node8node13_t5 <= 1
      M_timber_node9node11_t0 = 0
 0 <= M_timber_node9node11_t1 <= 1
 0 <= M_timber_node9node11_t2 <= 1
 0 <= M_timber_node9node11_t3 <= 1
 0 <= M_timber_node9node11_t4 <= 1
 0 <= M_timber_node9node11_t5 <= 1
      M_wide_node9node11_t0 = 0
 0 <= M_wide_node9node11_t1 <= 1
 0 <= M_wide_node9node11_t2 <= 1
 0 <= M_wide_node9node11_t3 <= 1
 0 <= M_wide_node9node11_t4 <= 1
 0 <= M_wide_node9node11_t5 <= 1
      M_timber_node9node14_t0 = 0
 0 <= M_timber_node9node14_t1 <= 1
 0 <= M_timber_node9node14_t2 <= 1
 0 <= M_timber_node9node14_t3 <= 1
 0 <= M_timber_node9node14_t4 <= 1
 0 <= M_timber_node9node14_t5 <= 1
      M_wide_node9node14_t0 = 0
 0 <= M_wide_node9node14_t1 <= 1
 0 <= M_wide_node9node14_t2 <= 1
 0 <= M_wide_node9node14_t3 <= 1
 0 <= M_wide_node9node14_t4 <= 1
 0 <= M_wide_node9node14_t5 <= 1
      M_timber_node10node13_t0 = 0
 0 <= M_timber_node10node13_t1 <= 1
 0 <= M_timber_node10node13_t2 <= 1
 0 <= M_timber_node10node13_t3 <= 1
 0 <= M_timber_node10node13_t4 <= 1
 0 <= M_timber_node10node13_t5 <= 1
      M_wide_node10node13_t0 = 0
 0 <= M_wide_node10node13_t1 <= 1
 0 <= M_wide_node10node13_t2 <= 1
 0 <= M_wide_node10node13_t3 <= 1
 0 <= M_wide_node10node13_t4 <= 1
 0 <= M_wide_node10node13_t5 <= 1
      M_timber_node11node14_t0 = 0
 0 <= M_timber_node11node14_t1 <= 1
 0 <= M_timber_node11node14_t2 <= 1
 0 <= M_timber_node11node14_t3 <= 1
 0 <= M_timber_node11node14_t4 <= 1
 0 <= M_timber_node11node14_t5 <= 1
      M_wide_node11node14_t0 = 0
 0 <= M_wide_node11node14_t1 <= 1
 0 <= M_wide_node11node14_t2 <= 1
 0 <= M_wide_node11node14_t3 <= 1
 0 <= M_wide_node11node14_t4 <= 1
 0 <= M_wide_node11node14_t5 <= 1
      U_node1node3_t0 = 0
 0 <= U_node1node3_t1 <= 1
 0 <= U_node1node3_t2 <= 1
 0 <= U_node1node3_t3 <= 1
 0 <= U_node1node3_t4 <= 1
 0 <= U_node1node3_t5 <= 1
      U_node1node2_t0 = 0
 0 <= U_node1node2_t1 <= 1
 0 <= U_node1node2_t2 <= 1
 0 <= U_node1node2_t3 <= 1
 0 <= U_node1node2_t4 <= 1
 0 <= U_node1node2_t5 <= 1
      U_node1node7_t0 = 0
 0 <= U_node1node7_t1 <= 1
 0 <= U_node1node7_t2 <= 1
 0 <= U_node1node7_t3 <= 1
 0 <= U_node1node7_t4 <= 1
 0 <= U_node1node7_t5 <= 1
      U_node1node12_t0 = 0
 0 <= U_node1node12_t1 <= 1
 0 <= U_node1node12_t2 <= 1
 0 <= U_node1node12_t3 <= 1
 0 <= U_node1node12_t4 <= 1
 0 <= U_node1node12_t5 <= 1
      U_node1node15_t0 = 0
 0 <= U_node1node15_t1 <= 1
 0 <= U_node1node15_t2 <= 1
 0 <= U_node1node15_t3 <= 1
 0 <= U_node1node15_t4 <= 1
 0 <= U_node1node15_t5 <= 1
      U_node2node3_t0 = 0
 0 <= U_node2node3_t1 <= 1
 0 <= U_node2node3_t2 <= 1
 0 <= U_node2node3_t3 <= 1
 0 <= U_node2node3_t4 <= 1
 0 <= U_node2node3_t5 <= 1
      U_node2node12_t0 = 0
 0 <= U_node2node12_t1 <= 1
 0 <= U_node2node12_t2 <= 1
 0 <= U_node2node12_t3 <= 1
 0 <= U_node2node12_t4 <= 1
 0 <= U_node2node12_t5 <= 1
      U_node2node15_t0 = 0
 0 <= U_node2node15_t1 <= 1
 0 <= U_node2node15_t2 <= 1
 0 <= U_node2node15_t3 <= 1
 0 <= U_node2node15_t4 <= 1
 0 <= U_node2node15_t5 <= 1
      U_node3node8_t0 = 0
 0 <= U_node3node8_t1 <= 1
 0 <= U_node3node8_t2 <= 1
 0 <= U_node3node8_t3 <= 1
 0 <= U_node3node8_t4 <= 1
 0 <= U_node3node8_t5 <= 1
      U_node3node12_t0 = 0
 0 <= U_node3node12_t1 <= 1
 0 <= U_node3node12_t2 <= 1
 0 <= U_node3node12_t3 <= 1
 0 <= U_node3node12_t4 <= 1
 0 <= U_node3node12_t5 <= 1
      U_node3node15_t0 = 0
 0 <= U_node3node15_t1 <= 1
 0 <= U_node3node15_t2 <= 1
 0 <= U_node3node15_t3 <= 1
 0 <= U_node3node15_t4 <= 1
 0 <= U_node3node15_t5 <= 1
      U_node4node5_t0 = 0
 0 <= U_node4node5_t1 <= 1
 0 <= U_node4node5_t2 <= 1
 0 <= U_node4node5_t3 <= 1
 0 <= U_node4node5_t4 <= 1
 0 <= U_node4node5_t5 <= 1
      U_node4node11_t0 = 0
 0 <= U_node4node11_t1 <= 1
 0 <= U_node4node11_t2 <= 1
 0 <= U_node4node11_t3 <= 1
 0 <= U_node4node11_t4 <= 1
 0 <= U_node4node11_t5 <= 1
      U_node4node6_t0 = 0
 0 <= U_node4node6_t1 <= 1
 0 <= U_node4node6_t2 <= 1
 0 <= U_node4node6_t3 <= 1
 0 <= U_node4node6_t4 <= 1
 0 <= U_node4node6_t5 <= 1
      U_node4node13_t0 = 0
 0 <= U_node4node13_t1 <= 1
 0 <= U_node4node13_t2 <= 1
 0 <= U_node4node13_t3 <= 1
 0 <= U_node4node13_t4 <= 1
 0 <= U_node4node13_t5 <= 1
      U_node4node14_t0 = 0
 0 <= U_node4node14_t1 <= 1
 0 <= U_node4node14_t2 <= 1
 0 <= U_node4node14_t3 <= 1
 0 <= U_node4node14_t4 <= 1
 0 <= U_node4node14_t5 <= 1
      U_node5node8_t0 = 0
 0 <= U_node5node8_t1 <= 1
 0 <= U_node5node8_t2 <= 1
 0 <= U_node5node8_t3 <= 1
 0 <= U_node5node8_t4 <= 1
 0 <= U_node5node8_t5 <= 1
      U_node5node13_t0 = 0
 0 <= U_node5node13_t1 <= 1
 0 <= U_node5node13_t2 <= 1
 0 <= U_node5node13_t3 <= 1
 0 <= U_node5node13_t4 <= 1
 0 <= U_node5node13_t5 <= 1
      U_node6node10_t0 = 0
 0 <= U_node6node10_t1 <= 1
 0 <= U_node6node10_t2 <= 1
 0 <= U_node6node10_t3 <= 1
 0 <= U_node6node10_t4 <= 1
 0 <= U_node6node10_t5 <= 1
      U_node6node9_t0 = 0
 0 <= U_node6node9_t1 <= 1
 0 <= U_node6node9_t2 <= 1
 0 <= U_node6node9_t3 <= 1
 0 <= U_node6node9_t4 <= 1
 0 <= U_node6node9_t5 <= 1
      U_node6node13_t0 = 0
 0 <= U_node6node13_t1 <= 1
 0 <= U_node6node13_t2 <= 1
 0 <= U_node6node13_t3 <= 1
 0 <= U_node6node13_t4 <= 1
 0 <= U_node6node13_t5 <= 1
      U_node6node14_t0 = 0
 0 <= U_node6node14_t1 <= 1
 0 <= U_node6node14_t2 <= 1
 0 <= U_node6node14_t3 <= 1
 0 <= U_node6node14_t4 <= 1
 0 <= U_node6node14_t5 <= 1
      U_node7node10_t0 = 0
 0 <= U_node7node10_t1 <= 1
 0 <= U_node7node10_t2 <= 1
 0 <= U_node7node10_t3 <= 1
 0 <= U_node7node10_t4 <= 1
 0 <= U_node7node10_t5 <= 1
      U_node7node8_t0 = 0
 0 <= U_node7node8_t1 <= 1
 0 <= U_node7node8_t2 <= 1
 0 <= U_node7node8_t3 <= 1
 0 <= U_node7node8_t4 <= 1
 0 <= U_node7node8_t5 <= 1
      U_node7node12_t0 = 0
 0 <= U_node7node12_t1 <= 1
 0 <= U_node7node12_t2 <= 1
 0 <= U_node7node12_t3 <= 1
 0 <= U_node7node12_t4 <= 1
 0 <= U_node7node12_t5 <= 1
      U_node7node13_t0 = 0
 0 <= U_node7node13_t1 <= 1
 0 <= U_node7node13_t2 <= 1
 0 <= U_node7node13_t3 <= 1
 0 <= U_node7node13_t4 <= 1
 0 <= U_node7node13_t5 <= 1
      U_node8node12_t0 = 0
 0 <= U_node8node12_t1 <= 1
 0 <= U_node8node12_t2 <= 1
 0 <= U_node8node12_t3 <= 1
 0 <= U_node8node12_t4 <= 1
 0 <= U_node8node12_t5 <= 1
      U_node8node13_t0 = 0
 0 <= U_node8node13_t1 <= 1
 0 <= U_node8node13_t2 <= 1
 0 <= U_node8node13_t3 <= 1
 0 <= U_node8node13_t4 <= 1
 0 <= U_node8node13_t5 <= 1
      U_node9node11_t0 = 0
 0 <= U_node9node11_t1 <= 1
 0 <= U_node9node11_t2 <= 1
 0 <= U_node9node11_t3 <= 1
 0 <= U_node9node11_t4 <= 1
 0 <= U_node9node11_t5 <= 1
      U_node9node14_t0 = 0
 0 <= U_node9node14_t1 <= 1
 0 <= U_node9node14_t2 <= 1
 0 <= U_node9node14_t3 <= 1
 0 <= U_node9node14_t4 <= 1
 0 <= U_node9node14_t5 <= 1
      U_node10node13_t0 = 0
 0 <= U_node10node13_t1 <= 1
 0 <= U_node10node13_t2 <= 1
 0 <= U_node10node13_t3 <= 1
 0 <= U_node10node13_t4 <= 1
 0 <= U_node10node13_t5 <= 1
      U_node11node14_t0 = 0
 0 <= U_node11node14_t1 <= 1
 0 <= U_node11node14_t2 <= 1
 0 <= U_node11node14_t3 <= 1
 0 <= U_node11node14_t4 <= 1
 0 <= U_node11node14_t5 <= 1
 0 <= flow_timber_node1node3_t1 <= 9
 0 <= flow_timber_node1node3_t2 <= 9
 0 <= flow_timber_node1node3_t3 <= 9
 0 <= flow_timber_node1node3_t4 <= 9
 0 <= flow_timber_node1node3_t5 <= 9
 0 <= flow_wide_node1node3_t1 <= 9
 0 <= flow_wide_node1node3_t2 <= 9
 0 <= flow_wide_node1node3_t3 <= 9
 0 <= flow_wide_node1node3_t4 <= 9
 0 <= flow_wide_node1node3_t5 <= 9
 0 <= flow_timber_node1node2_t1 <= 9
 0 <= flow_timber_node1node2_t2 <= 9
 0 <= flow_timber_node1node2_t3 <= 9
 0 <= flow_timber_node1node2_t4 <= 9
 0 <= flow_timber_node1node2_t5 <= 9
 0 <= flow_wide_node1node2_t1 <= 9
 0 <= flow_wide_node1node2_t2 <= 9
 0 <= flow_wide_node1node2_t3 <= 9
 0 <= flow_wide_node1node2_t4 <= 9
 0 <= flow_wide_node1node2_t5 <= 9
 0 <= flow_timber_node1node7_t1 <= 9
 0 <= flow_timber_node1node7_t2 <= 9
 0 <= flow_timber_node1node7_t3 <= 9
 0 <= flow_timber_node1node7_t4 <= 9
 0 <= flow_timber_node1node7_t5 <= 9
 0 <= flow_wide_node1node7_t1 <= 9
 0 <= flow_wide_node1node7_t2 <= 9
 0 <= flow_wide_node1node7_t3 <= 9
 0 <= flow_wide_node1node7_t4 <= 9
 0 <= flow_wide_node1node7_t5 <= 9
 0 <= flow_timber_node1node12_t1 <= 9
 0 <= flow_timber_node1node12_t2 <= 9
 0 <= flow_timber_node1node12_t3 <= 9
 0 <= flow_timber_node1node12_t4 <= 9
 0 <= flow_timber_node1node12_t5 <= 9
 0 <= flow_wide_node1node12_t1 <= 9
 0 <= flow_wide_node1node12_t2 <= 9
 0 <= flow_wide_node1node12_t3 <= 9
 0 <= flow_wide_node1node12_t4 <= 9
 0 <= flow_wide_node1node12_t5 <= 9
 0 <= flow_timber_node1node15_t1 <= 9
 0 <= flow_timber_node1node15_t2 <= 9
 0 <= flow_timber_node1node15_t3 <= 9
 0 <= flow_timber_node1node15_t4 <= 9
 0 <= flow_timber_node1node15_t5 <= 9
 0 <= flow_wide_node1node15_t1 <= 9
 0 <= flow_wide_node1node15_t2 <= 9
 0 <= flow_wide_node1node15_t3 <= 9
 0 <= flow_wide_node1node15_t4 <= 9
 0 <= flow_wide_node1node15_t5 <= 9
 0 <= flow_timber_node3node1_t1 <= 9
 0 <= flow_timber_node3node1_t2 <= 9
 0 <= flow_timber_node3node1_t3 <= 9
 0 <= flow_timber_node3node1_t4 <= 9
 0 <= flow_timber_node3node1_t5 <= 9
 0 <= flow_wide_node3node1_t1 <= 9
 0 <= flow_wide_node3node1_t2 <= 9
 0 <= flow_wide_node3node1_t3 <= 9
 0 <= flow_wide_node3node1_t4 <= 9
 0 <= flow_wide_node3node1_t5 <= 9
 0 <= flow_timber_node3node2_t1 <= 9
 0 <= flow_timber_node3node2_t2 <= 9
 0 <= flow_timber_node3node2_t3 <= 9
 0 <= flow_timber_node3node2_t4 <= 9
 0 <= flow_timber_node3node2_t5 <= 9
 0 <= flow_wide_node3node2_t1 <= 9
 0 <= flow_wide_node3node2_t2 <= 9
 0 <= flow_wide_node3node2_t3 <= 9
 0 <= flow_wide_node3node2_t4 <= 9
 0 <= flow_wide_node3node2_t5 <= 9
 0 <= flow_timber_node3node8_t1 <= 9
 0 <= flow_timber_node3node8_t2 <= 9
 0 <= flow_timber_node3node8_t3 <= 9
 0 <= flow_timber_node3node8_t4 <= 9
 0 <= flow_timber_node3node8_t5 <= 9
 0 <= flow_wide_node3node8_t1 <= 9
 0 <= flow_wide_node3node8_t2 <= 9
 0 <= flow_wide_node3node8_t3 <= 9
 0 <= flow_wide_node3node8_t4 <= 9
 0 <= flow_wide_node3node8_t5 <= 9
 0 <= flow_timber_node3node12_t1 <= 9
 0 <= flow_timber_node3node12_t2 <= 9
 0 <= flow_timber_node3node12_t3 <= 9
 0 <= flow_timber_node3node12_t4 <= 9
 0 <= flow_timber_node3node12_t5 <= 9
 0 <= flow_wide_node3node12_t1 <= 9
 0 <= flow_wide_node3node12_t2 <= 9
 0 <= flow_wide_node3node12_t3 <= 9
 0 <= flow_wide_node3node12_t4 <= 9
 0 <= flow_wide_node3node12_t5 <= 9
 0 <= flow_timber_node3node15_t1 <= 9
 0 <= flow_timber_node3node15_t2 <= 9
 0 <= flow_timber_node3node15_t3 <= 9
 0 <= flow_timber_node3node15_t4 <= 9
 0 <= flow_timber_node3node15_t5 <= 9
 0 <= flow_wide_node3node15_t1 <= 9
 0 <= flow_wide_node3node15_t2 <= 9
 0 <= flow_wide_node3node15_t3 <= 9
 0 <= flow_wide_node3node15_t4 <= 9
 0 <= flow_wide_node3node15_t5 <= 9
 0 <= flow_timber_node2node1_t1 <= 9
 0 <= flow_timber_node2node1_t2 <= 9
 0 <= flow_timber_node2node1_t3 <= 9
 0 <= flow_timber_node2node1_t4 <= 9
 0 <= flow_timber_node2node1_t5 <= 9
 0 <= flow_wide_node2node1_t1 <= 9
 0 <= flow_wide_node2node1_t2 <= 9
 0 <= flow_wide_node2node1_t3 <= 9
 0 <= flow_wide_node2node1_t4 <= 9
 0 <= flow_wide_node2node1_t5 <= 9
 0 <= flow_timber_node2node3_t1 <= 9
 0 <= flow_timber_node2node3_t2 <= 9
 0 <= flow_timber_node2node3_t3 <= 9
 0 <= flow_timber_node2node3_t4 <= 9
 0 <= flow_timber_node2node3_t5 <= 9
 0 <= flow_wide_node2node3_t1 <= 9
 0 <= flow_wide_node2node3_t2 <= 9
 0 <= flow_wide_node2node3_t3 <= 9
 0 <= flow_wide_node2node3_t4 <= 9
 0 <= flow_wide_node2node3_t5 <= 9
 0 <= flow_timber_node2node12_t1 <= 9
 0 <= flow_timber_node2node12_t2 <= 9
 0 <= flow_timber_node2node12_t3 <= 9
 0 <= flow_timber_node2node12_t4 <= 9
 0 <= flow_timber_node2node12_t5 <= 9
 0 <= flow_wide_node2node12_t1 <= 9
 0 <= flow_wide_node2node12_t2 <= 9
 0 <= flow_wide_node2node12_t3 <= 9
 0 <= flow_wide_node2node12_t4 <= 9
 0 <= flow_wide_node2node12_t5 <= 9
 0 <= flow_timber_node2node15_t1 <= 9
 0 <= flow_timber_node2node15_t2 <= 9
 0 <= flow_timber_node2node15_t3 <= 9
 0 <= flow_timber_node2node15_t4 <= 9
 0 <= flow_timber_node2node15_t5 <= 9
 0 <= flow_wide_node2node15_t1 <= 9
 0 <= flow_wide_node2node15_t2 <= 9
 0 <= flow_wide_node2node15_t3 <= 9
 0 <= flow_wide_node2node15_t4 <= 9
 0 <= flow_wide_node2node15_t5 <= 9
 0 <= flow_timber_node7node1_t1 <= 9
 0 <= flow_timber_node7node1_t2 <= 9
 0 <= flow_timber_node7node1_t3 <= 9
 0 <= flow_timber_node7node1_t4 <= 9
 0 <= flow_timber_node7node1_t5 <= 9
 0 <= flow_wide_node7node1_t1 <= 9
 0 <= flow_wide_node7node1_t2 <= 9
 0 <= flow_wide_node7node1_t3 <= 9
 0 <= flow_wide_node7node1_t4 <= 9
 0 <= flow_wide_node7node1_t5 <= 9
 0 <= flow_timber_node7node10_t1 <= 9
 0 <= flow_timber_node7node10_t2 <= 9
 0 <= flow_timber_node7node10_t3 <= 9
 0 <= flow_timber_node7node10_t4 <= 9
 0 <= flow_timber_node7node10_t5 <= 9
 0 <= flow_wide_node7node10_t1 <= 9
 0 <= flow_wide_node7node10_t2 <= 9
 0 <= flow_wide_node7node10_t3 <= 9
 0 <= flow_wide_node7node10_t4 <= 9
 0 <= flow_wide_node7node10_t5 <= 9
 0 <= flow_timber_node7node8_t1 <= 9
 0 <= flow_timber_node7node8_t2 <= 9
 0 <= flow_timber_node7node8_t3 <= 9
 0 <= flow_timber_node7node8_t4 <= 9
 0 <= flow_timber_node7node8_t5 <= 9
 0 <= flow_wide_node7node8_t1 <= 9
 0 <= flow_wide_node7node8_t2 <= 9
 0 <= flow_wide_node7node8_t3 <= 9
 0 <= flow_wide_node7node8_t4 <= 9
 0 <= flow_wide_node7node8_t5 <= 9
 0 <= flow_timber_node7node12_t1 <= 9
 0 <= flow_timber_node7node12_t2 <= 9
 0 <= flow_timber_node7node12_t3 <= 9
 0 <= flow_timber_node7node12_t4 <= 9
 0 <= flow_timber_node7node12_t5 <= 9
 0 <= flow_wide_node7node12_t1 <= 9
 0 <= flow_wide_node7node12_t2 <= 9
 0 <= flow_wide_node7node12_t3 <= 9
 0 <= flow_wide_node7node12_t4 <= 9
 0 <= flow_wide_node7node12_t5 <= 9
 0 <= flow_timber_node7node13_t1 <= 9
 0 <= flow_timber_node7node13_t2 <= 9
 0 <= flow_timber_node7node13_t3 <= 9
 0 <= flow_timber_node7node13_t4 <= 9
 0 <= flow_timber_node7node13_t5 <= 9
 0 <= flow_wide_node7node13_t1 <= 9
 0 <= flow_wide_node7node13_t2 <= 9
 0 <= flow_wide_node7node13_t3 <= 9
 0 <= flow_wide_node7node13_t4 <= 9
 0 <= flow_wide_node7node13_t5 <= 9
 0 <= flow_timber_node12node1_t1 <= 9
 0 <= flow_timber_node12node1_t2 <= 9
 0 <= flow_timber_node12node1_t3 <= 9
 0 <= flow_timber_node12node1_t4 <= 9
 0 <= flow_timber_node12node1_t5 <= 9
 0 <= flow_wide_node12node1_t1 <= 9
 0 <= flow_wide_node12node1_t2 <= 9
 0 <= flow_wide_node12node1_t3 <= 9
 0 <= flow_wide_node12node1_t4 <= 9
 0 <= flow_wide_node12node1_t5 <= 9
 0 <= flow_timber_node12node2_t1 <= 9
 0 <= flow_timber_node12node2_t2 <= 9
 0 <= flow_timber_node12node2_t3 <= 9
 0 <= flow_timber_node12node2_t4 <= 9
 0 <= flow_timber_node12node2_t5 <= 9
 0 <= flow_wide_node12node2_t1 <= 9
 0 <= flow_wide_node12node2_t2 <= 9
 0 <= flow_wide_node12node2_t3 <= 9
 0 <= flow_wide_node12node2_t4 <= 9
 0 <= flow_wide_node12node2_t5 <= 9
 0 <= flow_timber_node12node3_t1 <= 9
 0 <= flow_timber_node12node3_t2 <= 9
 0 <= flow_timber_node12node3_t3 <= 9
 0 <= flow_timber_node12node3_t4 <= 9
 0 <= flow_timber_node12node3_t5 <= 9
 0 <= flow_wide_node12node3_t1 <= 9
 0 <= flow_wide_node12node3_t2 <= 9
 0 <= flow_wide_node12node3_t3 <= 9
 0 <= flow_wide_node12node3_t4 <= 9
 0 <= flow_wide_node12node3_t5 <= 9
 0 <= flow_timber_node12node7_t1 <= 9
 0 <= flow_timber_node12node7_t2 <= 9
 0 <= flow_timber_node12node7_t3 <= 9
 0 <= flow_timber_node12node7_t4 <= 9
 0 <= flow_timber_node12node7_t5 <= 9
 0 <= flow_wide_node12node7_t1 <= 9
 0 <= flow_wide_node12node7_t2 <= 9
 0 <= flow_wide_node12node7_t3 <= 9
 0 <= flow_wide_node12node7_t4 <= 9
 0 <= flow_wide_node12node7_t5 <= 9
 0 <= flow_timber_node12node8_t1 <= 9
 0 <= flow_timber_node12node8_t2 <= 9
 0 <= flow_timber_node12node8_t3 <= 9
 0 <= flow_timber_node12node8_t4 <= 9
 0 <= flow_timber_node12node8_t5 <= 9
 0 <= flow_wide_node12node8_t1 <= 9
 0 <= flow_wide_node12node8_t2 <= 9
 0 <= flow_wide_node12node8_t3 <= 9
 0 <= flow_wide_node12node8_t4 <= 9
 0 <= flow_wide_node12node8_t5 <= 9
 0 <= flow_timber_node15node1_t1 <= 9
 0 <= flow_timber_node15node1_t2 <= 9
 0 <= flow_timber_node15node1_t3 <= 9
 0 <= flow_timber_node15node1_t4 <= 9
 0 <= flow_timber_node15node1_t5 <= 9
 0 <= flow_wide_node15node1_t1 <= 9
 0 <= flow_wide_node15node1_t2 <= 9
 0 <= flow_wide_node15node1_t3 <= 9
 0 <= flow_wide_node15node1_t4 <= 9
 0 <= flow_wide_node15node1_t5 <= 9
 0 <= flow_timber_node15node2_t1 <= 9
 0 <= flow_timber_node15node2_t2 <= 9
 0 <= flow_timber_node15node2_t3 <= 9
 0 <= flow_timber_node15node2_t4 <= 9
 0 <= flow_timber_node15node2_t5 <= 9
 0 <= flow_wide_node15node2_t1 <= 9
 0 <= flow_wide_node15node2_t2 <= 9
 0 <= flow_wide_node15node2_t3 <= 9
 0 <= flow_wide_node15node2_t4 <= 9
 0 <= flow_wide_node15node2_t5 <= 9
 0 <= flow_timber_node15node3_t1 <= 9
 0 <= flow_timber_node15node3_t2 <= 9
 0 <= flow_timber_node15node3_t3 <= 9
 0 <= flow_timber_node15node3_t4 <= 9
 0 <= flow_timber_node15node3_t5 <= 9
 0 <= flow_wide_node15node3_t1 <= 9
 0 <= flow_wide_node15node3_t2 <= 9
 0 <= flow_wide_node15node3_t3 <= 9
 0 <= flow_wide_node15node3_t4 <= 9
 0 <= flow_wide_node15node3_t5 <= 9
 0 <= flow_timber_node8node3_t1 <= 9
 0 <= flow_timber_node8node3_t2 <= 9
 0 <= flow_timber_node8node3_t3 <= 9
 0 <= flow_timber_node8node3_t4 <= 9
 0 <= flow_timber_node8node3_t5 <= 9
 0 <= flow_wide_node8node3_t1 <= 9
 0 <= flow_wide_node8node3_t2 <= 9
 0 <= flow_wide_node8node3_t3 <= 9
 0 <= flow_wide_node8node3_t4 <= 9
 0 <= flow_wide_node8node3_t5 <= 9
 0 <= flow_timber_node8node5_t1 <= 9
 0 <= flow_timber_node8node5_t2 <= 9
 0 <= flow_timber_node8node5_t3 <= 9
 0 <= flow_timber_node8node5_t4 <= 9
 0 <= flow_timber_node8node5_t5 <= 9
 0 <= flow_wide_node8node5_t1 <= 9
 0 <= flow_wide_node8node5_t2 <= 9
 0 <= flow_wide_node8node5_t3 <= 9
 0 <= flow_wide_node8node5_t4 <= 9
 0 <= flow_wide_node8node5_t5 <= 9
 0 <= flow_timber_node8node7_t1 <= 9
 0 <= flow_timber_node8node7_t2 <= 9
 0 <= flow_timber_node8node7_t3 <= 9
 0 <= flow_timber_node8node7_t4 <= 9
 0 <= flow_timber_node8node7_t5 <= 9
 0 <= flow_wide_node8node7_t1 <= 9
 0 <= flow_wide_node8node7_t2 <= 9
 0 <= flow_wide_node8node7_t3 <= 9
 0 <= flow_wide_node8node7_t4 <= 9
 0 <= flow_wide_node8node7_t5 <= 9
 0 <= flow_timber_node8node12_t1 <= 9
 0 <= flow_timber_node8node12_t2 <= 9
 0 <= flow_timber_node8node12_t3 <= 9
 0 <= flow_timber_node8node12_t4 <= 9
 0 <= flow_timber_node8node12_t5 <= 9
 0 <= flow_wide_node8node12_t1 <= 9
 0 <= flow_wide_node8node12_t2 <= 9
 0 <= flow_wide_node8node12_t3 <= 9
 0 <= flow_wide_node8node12_t4 <= 9
 0 <= flow_wide_node8node12_t5 <= 9
 0 <= flow_timber_node8node13_t1 <= 9
 0 <= flow_timber_node8node13_t2 <= 9
 0 <= flow_timber_node8node13_t3 <= 9
 0 <= flow_timber_node8node13_t4 <= 9
 0 <= flow_timber_node8node13_t5 <= 9
 0 <= flow_wide_node8node13_t1 <= 9
 0 <= flow_wide_node8node13_t2 <= 9
 0 <= flow_wide_node8node13_t3 <= 9
 0 <= flow_wide_node8node13_t4 <= 9
 0 <= flow_wide_node8node13_t5 <= 9
 0 <= flow_timber_node4node5_t1 <= 9
 0 <= flow_timber_node4node5_t2 <= 9
 0 <= flow_timber_node4node5_t3 <= 9
 0 <= flow_timber_node4node5_t4 <= 9
 0 <= flow_timber_node4node5_t5 <= 9
 0 <= flow_wide_node4node5_t1 <= 9
 0 <= flow_wide_node4node5_t2 <= 9
 0 <= flow_wide_node4node5_t3 <= 9
 0 <= flow_wide_node4node5_t4 <= 9
 0 <= flow_wide_node4node5_t5 <= 9
 0 <= flow_timber_node4node11_t1 <= 9
 0 <= flow_timber_node4node11_t2 <= 9
 0 <= flow_timber_node4node11_t3 <= 9
 0 <= flow_timber_node4node11_t4 <= 9
 0 <= flow_timber_node4node11_t5 <= 9
 0 <= flow_wide_node4node11_t1 <= 9
 0 <= flow_wide_node4node11_t2 <= 9
 0 <= flow_wide_node4node11_t3 <= 9
 0 <= flow_wide_node4node11_t4 <= 9
 0 <= flow_wide_node4node11_t5 <= 9
 0 <= flow_timber_node4node6_t1 <= 9
 0 <= flow_timber_node4node6_t2 <= 9
 0 <= flow_timber_node4node6_t3 <= 9
 0 <= flow_timber_node4node6_t4 <= 9
 0 <= flow_timber_node4node6_t5 <= 9
 0 <= flow_wide_node4node6_t1 <= 9
 0 <= flow_wide_node4node6_t2 <= 9
 0 <= flow_wide_node4node6_t3 <= 9
 0 <= flow_wide_node4node6_t4 <= 9
 0 <= flow_wide_node4node6_t5 <= 9
 0 <= flow_timber_node4node13_t1 <= 9
 0 <= flow_timber_node4node13_t2 <= 9
 0 <= flow_timber_node4node13_t3 <= 9
 0 <= flow_timber_node4node13_t4 <= 9
 0 <= flow_timber_node4node13_t5 <= 9
 0 <= flow_wide_node4node13_t1 <= 9
 0 <= flow_wide_node4node13_t2 <= 9
 0 <= flow_wide_node4node13_t3 <= 9
 0 <= flow_wide_node4node13_t4 <= 9
 0 <= flow_wide_node4node13_t5 <= 9
 0 <= flow_timber_node4node14_t1 <= 9
 0 <= flow_timber_node4node14_t2 <= 9
 0 <= flow_timber_node4node14_t3 <= 9
 0 <= flow_timber_node4node14_t4 <= 9
 0 <= flow_timber_node4node14_t5 <= 9
 0 <= flow_wide_node4node14_t1 <= 9
 0 <= flow_wide_node4node14_t2 <= 9
 0 <= flow_wide_node4node14_t3 <= 9
 0 <= flow_wide_node4node14_t4 <= 9
 0 <= flow_wide_node4node14_t5 <= 9
 0 <= flow_timber_node5node4_t1 <= 9
 0 <= flow_timber_node5node4_t2 <= 9
 0 <= flow_timber_node5node4_t3 <= 9
 0 <= flow_timber_node5node4_t4 <= 9
 0 <= flow_timber_node5node4_t5 <= 9
 0 <= flow_wide_node5node4_t1 <= 9
 0 <= flow_wide_node5node4_t2 <= 9
 0 <= flow_wide_node5node4_t3 <= 9
 0 <= flow_wide_node5node4_t4 <= 9
 0 <= flow_wide_node5node4_t5 <= 9
 0 <= flow_timber_node5node8_t1 <= 9
 0 <= flow_timber_node5node8_t2 <= 9
 0 <= flow_timber_node5node8_t3 <= 9
 0 <= flow_timber_node5node8_t4 <= 9
 0 <= flow_timber_node5node8_t5 <= 9
 0 <= flow_wide_node5node8_t1 <= 9
 0 <= flow_wide_node5node8_t2 <= 9
 0 <= flow_wide_node5node8_t3 <= 9
 0 <= flow_wide_node5node8_t4 <= 9
 0 <= flow_wide_node5node8_t5 <= 9
 0 <= flow_timber_node5node13_t1 <= 9
 0 <= flow_timber_node5node13_t2 <= 9
 0 <= flow_timber_node5node13_t3 <= 9
 0 <= flow_timber_node5node13_t4 <= 9
 0 <= flow_timber_node5node13_t5 <= 9
 0 <= flow_wide_node5node13_t1 <= 9
 0 <= flow_wide_node5node13_t2 <= 9
 0 <= flow_wide_node5node13_t3 <= 9
 0 <= flow_wide_node5node13_t4 <= 9
 0 <= flow_wide_node5node13_t5 <= 9
 0 <= flow_timber_node11node4_t1 <= 9
 0 <= flow_timber_node11node4_t2 <= 9
 0 <= flow_timber_node11node4_t3 <= 9
 0 <= flow_timber_node11node4_t4 <= 9
 0 <= flow_timber_node11node4_t5 <= 9
 0 <= flow_wide_node11node4_t1 <= 9
 0 <= flow_wide_node11node4_t2 <= 9
 0 <= flow_wide_node11node4_t3 <= 9
 0 <= flow_wide_node11node4_t4 <= 9
 0 <= flow_wide_node11node4_t5 <= 9
 0 <= flow_timber_node11node9_t1 <= 9
 0 <= flow_timber_node11node9_t2 <= 9
 0 <= flow_timber_node11node9_t3 <= 9
 0 <= flow_timber_node11node9_t4 <= 9
 0 <= flow_timber_node11node9_t5 <= 9
 0 <= flow_wide_node11node9_t1 <= 9
 0 <= flow_wide_node11node9_t2 <= 9
 0 <= flow_wide_node11node9_t3 <= 9
 0 <= flow_wide_node11node9_t4 <= 9
 0 <= flow_wide_node11node9_t5 <= 9
 0 <= flow_timber_node11node14_t1 <= 9
 0 <= flow_timber_node11node14_t2 <= 9
 0 <= flow_timber_node11node14_t3 <= 9
 0 <= flow_timber_node11node14_t4 <= 9
 0 <= flow_timber_node11node14_t5 <= 9
 0 <= flow_wide_node11node14_t1 <= 9
 0 <= flow_wide_node11node14_t2 <= 9
 0 <= flow_wide_node11node14_t3 <= 9
 0 <= flow_wide_node11node14_t4 <= 9
 0 <= flow_wide_node11node14_t5 <= 9
 0 <= flow_timber_node6node4_t1 <= 9
 0 <= flow_timber_node6node4_t2 <= 9
 0 <= flow_timber_node6node4_t3 <= 9
 0 <= flow_timber_node6node4_t4 <= 9
 0 <= flow_timber_node6node4_t5 <= 9
 0 <= flow_wide_node6node4_t1 <= 9
 0 <= flow_wide_node6node4_t2 <= 9
 0 <= flow_wide_node6node4_t3 <= 9
 0 <= flow_wide_node6node4_t4 <= 9
 0 <= flow_wide_node6node4_t5 <= 9
 0 <= flow_timber_node6node10_t1 <= 9
 0 <= flow_timber_node6node10_t2 <= 9
 0 <= flow_timber_node6node10_t3 <= 9
 0 <= flow_timber_node6node10_t4 <= 9
 0 <= flow_timber_node6node10_t5 <= 9
 0 <= flow_wide_node6node10_t1 <= 9
 0 <= flow_wide_node6node10_t2 <= 9
 0 <= flow_wide_node6node10_t3 <= 9
 0 <= flow_wide_node6node10_t4 <= 9
 0 <= flow_wide_node6node10_t5 <= 9
 0 <= flow_timber_node6node9_t1 <= 9
 0 <= flow_timber_node6node9_t2 <= 9
 0 <= flow_timber_node6node9_t3 <= 9
 0 <= flow_timber_node6node9_t4 <= 9
 0 <= flow_timber_node6node9_t5 <= 9
 0 <= flow_wide_node6node9_t1 <= 9
 0 <= flow_wide_node6node9_t2 <= 9
 0 <= flow_wide_node6node9_t3 <= 9
 0 <= flow_wide_node6node9_t4 <= 9
 0 <= flow_wide_node6node9_t5 <= 9
 0 <= flow_timber_node6node13_t1 <= 9
 0 <= flow_timber_node6node13_t2 <= 9
 0 <= flow_timber_node6node13_t3 <= 9
 0 <= flow_timber_node6node13_t4 <= 9
 0 <= flow_timber_node6node13_t5 <= 9
 0 <= flow_wide_node6node13_t1 <= 9
 0 <= flow_wide_node6node13_t2 <= 9
 0 <= flow_wide_node6node13_t3 <= 9
 0 <= flow_wide_node6node13_t4 <= 9
 0 <= flow_wide_node6node13_t5 <= 9
 0 <= flow_timber_node6node14_t1 <= 9
 0 <= flow_timber_node6node14_t2 <= 9
 0 <= flow_timber_node6node14_t3 <= 9
 0 <= flow_timber_node6node14_t4 <= 9
 0 <= flow_timber_node6node14_t5 <= 9
 0 <= flow_wide_node6node14_t1 <= 9
 0 <= flow_wide_node6node14_t2 <= 9
 0 <= flow_wide_node6node14_t3 <= 9
 0 <= flow_wide_node6node14_t4 <= 9
 0 <= flow_wide_node6node14_t5 <= 9
 0 <= flow_timber_node13node4_t1 <= 9
 0 <= flow_timber_node13node4_t2 <= 9
 0 <= flow_timber_node13node4_t3 <= 9
 0 <= flow_timber_node13node4_t4 <= 9
 0 <= flow_timber_node13node4_t5 <= 9
 0 <= flow_wide_node13node4_t1 <= 9
 0 <= flow_wide_node13node4_t2 <= 9
 0 <= flow_wide_node13node4_t3 <= 9
 0 <= flow_wide_node13node4_t4 <= 9
 0 <= flow_wide_node13node4_t5 <= 9
 0 <= flow_timber_node13node5_t1 <= 9
 0 <= flow_timber_node13node5_t2 <= 9
 0 <= flow_timber_node13node5_t3 <= 9
 0 <= flow_timber_node13node5_t4 <= 9
 0 <= flow_timber_node13node5_t5 <= 9
 0 <= flow_wide_node13node5_t1 <= 9
 0 <= flow_wide_node13node5_t2 <= 9
 0 <= flow_wide_node13node5_t3 <= 9
 0 <= flow_wide_node13node5_t4 <= 9
 0 <= flow_wide_node13node5_t5 <= 9
 0 <= flow_timber_node13node6_t1 <= 9
 0 <= flow_timber_node13node6_t2 <= 9
 0 <= flow_timber_node13node6_t3 <= 9
 0 <= flow_timber_node13node6_t4 <= 9
 0 <= flow_timber_node13node6_t5 <= 9
 0 <= flow_wide_node13node6_t1 <= 9
 0 <= flow_wide_node13node6_t2 <= 9
 0 <= flow_wide_node13node6_t3 <= 9
 0 <= flow_wide_node13node6_t4 <= 9
 0 <= flow_wide_node13node6_t5 <= 9
 0 <= flow_timber_node13node7_t1 <= 9
 0 <= flow_timber_node13node7_t2 <= 9
 0 <= flow_timber_node13node7_t3 <= 9
 0 <= flow_timber_node13node7_t4 <= 9
 0 <= flow_timber_node13node7_t5 <= 9
 0 <= flow_wide_node13node7_t1 <= 9
 0 <= flow_wide_node13node7_t2 <= 9
 0 <= flow_wide_node13node7_t3 <= 9
 0 <= flow_wide_node13node7_t4 <= 9
 0 <= flow_wide_node13node7_t5 <= 9
 0 <= flow_timber_node13node8_t1 <= 9
 0 <= flow_timber_node13node8_t2 <= 9
 0 <= flow_timber_node13node8_t3 <= 9
 0 <= flow_timber_node13node8_t4 <= 9
 0 <= flow_timber_node13node8_t5 <= 9
 0 <= flow_wide_node13node8_t1 <= 9
 0 <= flow_wide_node13node8_t2 <= 9
 0 <= flow_wide_node13node8_t3 <= 9
 0 <= flow_wide_node13node8_t4 <= 9
 0 <= flow_wide_node13node8_t5 <= 9
 0 <= flow_timber_node13node10_t1 <= 9
 0 <= flow_timber_node13node10_t2 <= 9
 0 <= flow_timber_node13node10_t3 <= 9
 0 <= flow_timber_node13node10_t4 <= 9
 0 <= flow_timber_node13node10_t5 <= 9
 0 <= flow_wide_node13node10_t1 <= 9
 0 <= flow_wide_node13node10_t2 <= 9
 0 <= flow_wide_node13node10_t3 <= 9
 0 <= flow_wide_node13node10_t4 <= 9
 0 <= flow_wide_node13node10_t5 <= 9
 0 <= flow_timber_node14node4_t1 <= 9
 0 <= flow_timber_node14node4_t2 <= 9
 0 <= flow_timber_node14node4_t3 <= 9
 0 <= flow_timber_node14node4_t4 <= 9
 0 <= flow_timber_node14node4_t5 <= 9
 0 <= flow_wide_node14node4_t1 <= 9
 0 <= flow_wide_node14node4_t2 <= 9
 0 <= flow_wide_node14node4_t3 <= 9
 0 <= flow_wide_node14node4_t4 <= 9
 0 <= flow_wide_node14node4_t5 <= 9
 0 <= flow_timber_node14node6_t1 <= 9
 0 <= flow_timber_node14node6_t2 <= 9
 0 <= flow_timber_node14node6_t3 <= 9
 0 <= flow_timber_node14node6_t4 <= 9
 0 <= flow_timber_node14node6_t5 <= 9
 0 <= flow_wide_node14node6_t1 <= 9
 0 <= flow_wide_node14node6_t2 <= 9
 0 <= flow_wide_node14node6_t3 <= 9
 0 <= flow_wide_node14node6_t4 <= 9
 0 <= flow_wide_node14node6_t5 <= 9
 0 <= flow_timber_node14node9_t1 <= 9
 0 <= flow_timber_node14node9_t2 <= 9
 0 <= flow_timber_node14node9_t3 <= 9
 0 <= flow_timber_node14node9_t4 <= 9
 0 <= flow_timber_node14node9_t5 <= 9
 0 <= flow_wide_node14node9_t1 <= 9
 0 <= flow_wide_node14node9_t2 <= 9
 0 <= flow_wide_node14node9_t3 <= 9
 0 <= flow_wide_node14node9_t4 <= 9
 0 <= flow_wide_node14node9_t5 <= 9
 0 <= flow_timber_node14node11_t1 <= 9
 0 <= flow_timber_node14node11_t2 <= 9
 0 <= flow_timber_node14node11_t3 <= 9
 0 <= flow_timber_node14node11_t4 <= 9
 0 <= flow_timber_node14node11_t5 <= 9
 0 <= flow_wide_node14node11_t1 <= 9
 0 <= flow_wide_node14node11_t2 <= 9
 0 <= flow_wide_node14node11_t3 <= 9
 0 <= flow_wide_node14node11_t4 <= 9
 0 <= flow_wide_node14node11_t5 <= 9
 0 <= flow_timber_node10node6_t1 <= 9
 0 <= flow_timber_node10node6_t2 <= 9
 0 <= flow_timber_node10node6_t3 <= 9
 0 <= flow_timber_node10node6_t4 <= 9
 0 <= flow_timber_node10node6_t5 <= 9
 0 <= flow_wide_node10node6_t1 <= 9
 0 <= flow_wide_node10node6_t2 <= 9
 0 <= flow_wide_node10node6_t3 <= 9
 0 <= flow_wide_node10node6_t4 <= 9
 0 <= flow_wide_node10node6_t5 <= 9
 0 <= flow_timber_node10node7_t1 <= 9
 0 <= flow_timber_node10node7_t2 <= 9
 0 <= flow_timber_node10node7_t3 <= 9
 0 <= flow_timber_node10node7_t4 <= 9
 0 <= flow_timber_node10node7_t5 <= 9
 0 <= flow_wide_node10node7_t1 <= 9
 0 <= flow_wide_node10node7_t2 <= 9
 0 <= flow_wide_node10node7_t3 <= 9
 0 <= flow_wide_node10node7_t4 <= 9
 0 <= flow_wide_node10node7_t5 <= 9
 0 <= flow_timber_node10node13_t1 <= 9
 0 <= flow_timber_node10node13_t2 <= 9
 0 <= flow_timber_node10node13_t3 <= 9
 0 <= flow_timber_node10node13_t4 <= 9
 0 <= flow_timber_node10node13_t5 <= 9
 0 <= flow_wide_node10node13_t1 <= 9
 0 <= flow_wide_node10node13_t2 <= 9
 0 <= flow_wide_node10node13_t3 <= 9
 0 <= flow_wide_node10node13_t4 <= 9
 0 <= flow_wide_node10node13_t5 <= 9
 0 <= flow_timber_node9node6_t1 <= 9
 0 <= flow_timber_node9node6_t2 <= 9
 0 <= flow_timber_node9node6_t3 <= 9
 0 <= flow_timber_node9node6_t4 <= 9
 0 <= flow_timber_node9node6_t5 <= 9
 0 <= flow_wide_node9node6_t1 <= 9
 0 <= flow_wide_node9node6_t2 <= 9
 0 <= flow_wide_node9node6_t3 <= 9
 0 <= flow_wide_node9node6_t4 <= 9
 0 <= flow_wide_node9node6_t5 <= 9
 0 <= flow_timber_node9node11_t1 <= 9
 0 <= flow_timber_node9node11_t2 <= 9
 0 <= flow_timber_node9node11_t3 <= 9
 0 <= flow_timber_node9node11_t4 <= 9
 0 <= flow_timber_node9node11_t5 <= 9
 0 <= flow_wide_node9node11_t1 <= 9
 0 <= flow_wide_node9node11_t2 <= 9
 0 <= flow_wide_node9node11_t3 <= 9
 0 <= flow_wide_node9node11_t4 <= 9
 0 <= flow_wide_node9node11_t5 <= 9
 0 <= flow_timber_node9node14_t1 <= 9
 0 <= flow_timber_node9node14_t2 <= 9
 0 <= flow_timber_node9node14_t3 <= 9
 0 <= flow_timber_node9node14_t4 <= 9
 0 <= flow_timber_node9node14_t5 <= 9
 0 <= flow_wide_node9node14_t1 <= 9
 0 <= flow_wide_node9node14_t2 <= 9
 0 <= flow_wide_node9node14_t3 <= 9
 0 <= flow_wide_node9node14_t4 <= 9
 0 <= flow_wide_node9node14_t5 <= 9
Binaries
 C_timber_node1node3_t0  C_timber_node1node3_t1  C_timber_node1node3_t2 
 C_timber_node1node3_t3  C_timber_node1node3_t4  C_timber_node1node3_t5 
 C_wide_node1node3_t0  C_wide_node1node3_t1  C_wide_node1node3_t2 
 C_wide_node1node3_t3  C_wide_node1node3_t4  C_wide_node1node3_t5 
 C_timber_node1node2_t0  C_timber_node1node2_t1  C_timber_node1node2_t2 
 C_timber_node1node2_t3  C_timber_node1node2_t4  C_timber_node1node2_t5 
 C_wide_node1node2_t0  C_wide_node1node2_t1  C_wide_node1node2_t2 
 C_wide_node1node2_t3  C_wide_node1node2_t4  C_wide_node1node2_t5 
 C_timber_node1node7_t0  C_timber_node1node7_t1  C_timber_node1node7_t2 
 C_timber_node1node7_t3  C_timber_node1node7_t4  C_timber_node1node7_t5 
 C_wide_node1node7_t0  C_wide_node1node7_t1  C_wide_node1node7_t2 
 C_wide_node1node7_t3  C_wide_node1node7_t4  C_wide_node1node7_t5 
 C_timber_node1node12_t0  C_timber_node1node12_t1  C_timber_node1node12_t2 
 C_timber_node1node12_t3  C_timber_node1node12_t4  C_timber_node1node12_t5 
 C_wide_node1node12_t0  C_wide_node1node12_t1  C_wide_node1node12_t2 
 C_wide_node1node12_t3  C_wide_node1node12_t4  C_wide_node1node12_t5 
 C_timber_node1node15_t0  C_timber_node1node15_t1  C_timber_node1node15_t2 
 C_timber_node1node15_t3  C_timber_node1node15_t4  C_timber_node1node15_t5 
 C_wide_node1node15_t0  C_wide_node1node15_t1  C_wide_node1node15_t2 
 C_wide_node1node15_t3  C_wide_node1node15_t4  C_wide_node1node15_t5 
 C_timber_node2node3_t0  C_timber_node2node3_t1  C_timber_node2node3_t2 
 C_timber_node2node3_t3  C_timber_node2node3_t4  C_timber_node2node3_t5 
 C_wide_node2node3_t0  C_wide_node2node3_t1  C_wide_node2node3_t2 
 C_wide_node2node3_t3  C_wide_node2node3_t4  C_wide_node2node3_t5 
 C_timber_node2node12_t0  C_timber_node2node12_t1  C_timber_node2node12_t2 
 C_timber_node2node12_t3  C_timber_node2node12_t4  C_timber_node2node12_t5 
 C_wide_node2node12_t0  C_wide_node2node12_t1  C_wide_node2node12_t2 
 C_wide_node2node12_t3  C_wide_node2node12_t4  C_wide_node2node12_t5 
 C_timber_node2node15_t0  C_timber_node2node15_t1  C_timber_node2node15_t2 
 C_timber_node2node15_t3  C_timber_node2node15_t4  C_timber_node2node15_t5 
 C_wide_node2node15_t0  C_wide_node2node15_t1  C_wide_node2node15_t2 
 C_wide_node2node15_t3  C_wide_node2node15_t4  C_wide_node2node15_t5 
 C_timber_node3node8_t0  C_timber_node3node8_t1  C_timber_node3node8_t2 
 C_timber_node3node8_t3  C_timber_node3node8_t4  C_timber_node3node8_t5 
 C_wide_node3node8_t0  C_wide_node3node8_t1  C_wide_node3node8_t2 
 C_wide_node3node8_t3  C_wide_node3node8_t4  C_wide_node3node8_t5 
 C_timber_node3node12_t0  C_timber_node3node12_t1  C_timber_node3node12_t2 
 C_timber_node3node12_t3  C_timber_node3node12_t4  C_timber_node3node12_t5 
 C_wide_node3node12_t0  C_wide_node3node12_t1  C_wide_node3node12_t2 
 C_wide_node3node12_t3  C_wide_node3node12_t4  C_wide_node3node12_t5 
 C_timber_node3node15_t0  C_timber_node3node15_t1  C_timber_node3node15_t2 
 C_timber_node3node15_t3  C_timber_node3node15_t4  C_timber_node3node15_t5 
 C_wide_node3node15_t0  C_wide_node3node15_t1  C_wide_node3node15_t2 
 C_wide_node3node15_t3  C_wide_node3node15_t4  C_wide_node3node15_t5 
 C_timber_node4node5_t0  C_timber_node4node5_t1  C_timber_node4node5_t2 
 C_timber_node4node5_t3  C_timber_node4node5_t4  C_timber_node4node5_t5 
 C_wide_node4node5_t0  C_wide_node4node5_t1  C_wide_node4node5_t2 
 C_wide_node4node5_t3  C_wide_node4node5_t4  C_wide_node4node5_t5 
 C_timber_node4node11_t0  C_timber_node4node11_t1  C_timber_node4node11_t2 
 C_timber_node4node11_t3  C_timber_node4node11_t4  C_timber_node4node11_t5 
 C_wide_node4node11_t0  C_wide_node4node11_t1  C_wide_node4node11_t2 
 C_wide_node4node11_t3  C_wide_node4node11_t4  C_wide_node4node11_t5 
 C_timber_node4node6_t0  C_timber_node4node6_t1  C_timber_node4node6_t2 
 C_timber_node4node6_t3  C_timber_node4node6_t4  C_timber_node4node6_t5 
 C_wide_node4node6_t0  C_wide_node4node6_t1  C_wide_node4node6_t2 
 C_wide_node4node6_t3  C_wide_node4node6_t4  C_wide_node4node6_t5 
 C_timber_node4node13_t0  C_timber_node4node13_t1  C_timber_node4node13_t2 
 C_timber_node4node13_t3  C_timber_node4node13_t4  C_timber_node4node13_t5 
 C_wide_node4node13_t0  C_wide_node4node13_t1  C_wide_node4node13_t2 
 C_wide_node4node13_t3  C_wide_node4node13_t4  C_wide_node4node13_t5 
 C_timber_node4node14_t0  C_timber_node4node14_t1  C_timber_node4node14_t2 
 C_timber_node4node14_t3  C_timber_node4node14_t4  C_timber_node4node14_t5 
 C_wide_node4node14_t0  C_wide_node4node14_t1  C_wide_node4node14_t2 
 C_wide_node4node14_t3  C_wide_node4node14_t4  C_wide_node4node14_t5 
 C_timber_node5node8_t0  C_timber_node5node8_t1  C_timber_node5node8_t2 
 C_timber_node5node8_t3  C_timber_node5node8_t4  C_timber_node5node8_t5 
 C_wide_node5node8_t0  C_wide_node5node8_t1  C_wide_node5node8_t2 
 C_wide_node5node8_t3  C_wide_node5node8_t4  C_wide_node5node8_t5 
 C_timber_node5node13_t0  C_timber_node5node13_t1  C_timber_node5node13_t2 
 C_timber_node5node13_t3  C_timber_node5node13_t4  C_timber_node5node13_t5 
 C_wide_node5node13_t0  C_wide_node5node13_t1  C_wide_node5node13_t2 
 C_wide_node5node13_t3  C_wide_node5node13_t4  C_wide_node5node13_t5 
 C_timber_node6node10_t0  C_timber_node6node10_t1  C_timber_node6node10_t2 
 C_timber_node6node10_t3  C_timber_node6node10_t4  C_timber_node6node10_t5 
 C_wide_node6node10_t0  C_wide_node6node10_t1  C_wide_node6node10_t2 
 C_wide_node6node10_t3  C_wide_node6node10_t4  C_wide_node6node10_t5 
 C_timber_node6node9_t0  C_timber_node6node9_t1  C_timber_node6node9_t2 
 C_timber_node6node9_t3  C_timber_node6node9_t4  C_timber_node6node9_t5 
 C_wide_node6node9_t0  C_wide_node6node9_t1  C_wide_node6node9_t2 
 C_wide_node6node9_t3  C_wide_node6node9_t4  C_wide_node6node9_t5 
 C_timber_node6node13_t0  C_timber_node6node13_t1  C_timber_node6node13_t2 
 C_timber_node6node13_t3  C_timber_node6node13_t4  C_timber_node6node13_t5 
 C_wide_node6node13_t0  C_wide_node6node13_t1  C_wide_node6node13_t2 
 C_wide_node6node13_t3  C_wide_node6node13_t4  C_wide_node6node13_t5 
 C_timber_node6node14_t0  C_timber_node6node14_t1  C_timber_node6node14_t2 
 C_timber_node6node14_t3  C_timber_node6node14_t4  C_timber_node6node14_t5 
 C_wide_node6node14_t0  C_wide_node6node14_t1  C_wide_node6node14_t2 
 C_wide_node6node14_t3  C_wide_node6node14_t4  C_wide_node6node14_t5 
 C_timber_node7node10_t0  C_timber_node7node10_t1  C_timber_node7node10_t2 
 C_timber_node7node10_t3  C_timber_node7node10_t4  C_timber_node7node10_t5 
 C_wide_node7node10_t0  C_wide_node7node10_t1  C_wide_node7node10_t2 
 C_wide_node7node10_t3  C_wide_node7node10_t4  C_wide_node7node10_t5 
 C_timber_node7node8_t0  C_timber_node7node8_t1  C_timber_node7node8_t2 
 C_timber_node7node8_t3  C_timber_node7node8_t4  C_timber_node7node8_t5 
 C_wide_node7node8_t0  C_wide_node7node8_t1  C_wide_node7node8_t2 
 C_wide_node7node8_t3  C_wide_node7node8_t4  C_wide_node7node8_t5 
 C_timber_node7node12_t0  C_timber_node7node12_t1  C_timber_node7node12_t2 
 C_timber_node7node12_t3  C_timber_node7node12_t4  C_timber_node7node12_t5 
 C_wide_node7node12_t0  C_wide_node7node12_t1  C_wide_node7node12_t2 
 C_wide_node7node12_t3  C_wide_node7node12_t4  C_wide_node7node12_t5 
 C_timber_node7node13_t0  C_timber_node7node13_t1  C_timber_node7node13_t2 
 C_timber_node7node13_t3  C_timber_node7node13_t4  C_timber_node7node13_t5 
 C_wide_node7node13_t0  C_wide_node7node13_t1  C_wide_node7node13_t2 
 C_wide_node7node13_t3  C_wide_node7node13_t4  C_wide_node7node13_t5 
 C_timber_node8node12_t0  C_timber_node8node12_t1  C_timber_node8node12_t2 
 C_timber_node8node12_t3  C_timber_node8node12_t4  C_timber_node8node12_t5 
 C_wide_node8node12_t0  C_wide_node8node12_t1  C_wide_node8node12_t2 
 C_wide_node8node12_t3  C_wide_node8node12_t4  C_wide_node8node12_t5 
 C_timber_node8node13_t0  C_timber_node8node13_t1  C_timber_node8node13_t2 
 C_timber_node8node13_t3  C_timber_node8node13_t4  C_timber_node8node13_t5 
 C_wide_node8node13_t0  C_wide_node8node13_t1  C_wide_node8node13_t2 
 C_wide_node8node13_t3  C_wide_node8node13_t4  C_wide_node8node13_t5 
 C_timber_node9node11_t0  C_timber_node9node11_t1  C_timber_node9node11_t2 
 C_timber_node9node11_t3  C_timber_node9node11_t4  C_timber_node9node11_t5 
 C_wide_node9node11_t0  C_wide_node9node11_t1  C_wide_node9node11_t2 
 C_wide_node9node11_t3  C_wide_node9node11_t4  C_wide_node9node11_t5 
 C_timber_node9node14_t0  C_timber_node9node14_t1  C_timber_node9node14_t2 
 C_timber_node9node14_t3  C_timber_node9node14_t4  C_timber_node9node14_t5 
 C_wide_node9node14_t0  C_wide_node9node14_t1  C_wide_node9node14_t2 
 C_wide_node9node14_t3  C_wide_node9node14_t4  C_wide_node9node14_t5 
 C_timber_node10node13_t0  C_timber_node10node13_t1  C_timber_node10node13_t2 
 C_timber_node10node13_t3  C_timber_node10node13_t4  C_timber_node10node13_t5 
 C_wide_node10node13_t0  C_wide_node10node13_t1  C_wide_node10node13_t2 
 C_wide_node10node13_t3  C_wide_node10node13_t4  C_wide_node10node13_t5 
 C_timber_node11node14_t0  C_timber_node11node14_t1  C_timber_node11node14_t2 
 C_timber_node11node14_t3  C_timber_node11node14_t4  C_timber_node11node14_t5 
 C_wide_node11node14_t0  C_wide_node11node14_t1  C_wide_node11node14_t2 
 C_wide_node11node14_t3  C_wide_node11node14_t4  C_wide_node11node14_t5 
 M_timber_node1node3_t0  M_timber_node1node3_t1  M_timber_node1node3_t2 
 M_timber_node1node3_t3  M_timber_node1node3_t4  M_timber_node1node3_t5 
 M_wide_node1node3_t0  M_wide_node1node3_t1  M_wide_node1node3_t2 
 M_wide_node1node3_t3  M_wide_node1node3_t4  M_wide_node1node3_t5 
 M_timber_node1node2_t0  M_timber_node1node2_t1  M_timber_node1node2_t2 
 M_timber_node1node2_t3  M_timber_node1node2_t4  M_timber_node1node2_t5 
 M_wide_node1node2_t0  M_wide_node1node2_t1  M_wide_node1node2_t2 
 M_wide_node1node2_t3  M_wide_node1node2_t4  M_wide_node1node2_t5 
 M_timber_node1node7_t0  M_timber_node1node7_t1  M_timber_node1node7_t2 
 M_timber_node1node7_t3  M_timber_node1node7_t4  M_timber_node1node7_t5 
 M_wide_node1node7_t0  M_wide_node1node7_t1  M_wide_node1node7_t2 
 M_wide_node1node7_t3  M_wide_node1node7_t4  M_wide_node1node7_t5 
 M_timber_node1node12_t0  M_timber_node1node12_t1  M_timber_node1node12_t2 
 M_timber_node1node12_t3  M_timber_node1node12_t4  M_timber_node1node12_t5 
 M_wide_node1node12_t0  M_wide_node1node12_t1  M_wide_node1node12_t2 
 M_wide_node1node12_t3  M_wide_node1node12_t4  M_wide_node1node12_t5 
 M_timber_node1node15_t0  M_timber_node1node15_t1  M_timber_node1node15_t2 
 M_timber_node1node15_t3  M_timber_node1node15_t4  M_timber_node1node15_t5 
 M_wide_node1node15_t0  M_wide_node1node15_t1  M_wide_node1node15_t2 
 M_wide_node1node15_t3  M_wide_node1node15_t4  M_wide_node1node15_t5 
 M_timber_node2node3_t0  M_timber_node2node3_t1  M_timber_node2node3_t2 
 M_timber_node2node3_t3  M_timber_node2node3_t4  M_timber_node2node3_t5 
 M_wide_node2node3_t0  M_wide_node2node3_t1  M_wide_node2node3_t2 
 M_wide_node2node3_t3  M_wide_node2node3_t4  M_wide_node2node3_t5 
 M_timber_node2node12_t0  M_timber_node2node12_t1  M_timber_node2node12_t2 
 M_timber_node2node12_t3  M_timber_node2node12_t4  M_timber_node2node12_t5 
 M_wide_node2node12_t0  M_wide_node2node12_t1  M_wide_node2node12_t2 
 M_wide_node2node12_t3  M_wide_node2node12_t4  M_wide_node2node12_t5 
 M_timber_node2node15_t0  M_timber_node2node15_t1  M_timber_node2node15_t2 
 M_timber_node2node15_t3  M_timber_node2node15_t4  M_timber_node2node15_t5 
 M_wide_node2node15_t0  M_wide_node2node15_t1  M_wide_node2node15_t2 
 M_wide_node2node15_t3  M_wide_node2node15_t4  M_wide_node2node15_t5 
 M_timber_node3node8_t0  M_timber_node3node8_t1  M_timber_node3node8_t2 
 M_timber_node3node8_t3  M_timber_node3node8_t4  M_timber_node3node8_t5 
 M_wide_node3node8_t0  M_wide_node3node8_t1  M_wide_node3node8_t2 
 M_wide_node3node8_t3  M_wide_node3node8_t4  M_wide_node3node8_t5 
 M_timber_node3node12_t0  M_timber_node3node12_t1  M_timber_node3node12_t2 
 M_timber_node3node12_t3  M_timber_node3node12_t4  M_timber_node3node12_t5 
 M_wide_node3node12_t0  M_wide_node3node12_t1  M_wide_node3node12_t2 
 M_wide_node3node12_t3  M_wide_node3node12_t4  M_wide_node3node12_t5 
 M_timber_node3node15_t0  M_timber_node3node15_t1  M_timber_node3node15_t2 
 M_timber_node3node15_t3  M_timber_node3node15_t4  M_timber_node3node15_t5 
 M_wide_node3node15_t0  M_wide_node3node15_t1  M_wide_node3node15_t2 
 M_wide_node3node15_t3  M_wide_node3node15_t4  M_wide_node3node15_t5 
 M_timber_node4node5_t0  M_timber_node4node5_t1  M_timber_node4node5_t2 
 M_timber_node4node5_t3  M_timber_node4node5_t4  M_timber_node4node5_t5 
 M_wide_node4node5_t0  M_wide_node4node5_t1  M_wide_node4node5_t2 
 M_wide_node4node5_t3  M_wide_node4node5_t4  M_wide_node4node5_t5 
 M_timber_node4node11_t0  M_timber_node4node11_t1  M_timber_node4node11_t2 
 M_timber_node4node11_t3  M_timber_node4node11_t4  M_timber_node4node11_t5 
 M_wide_node4node11_t0  M_wide_node4node11_t1  M_wide_node4node11_t2 
 M_wide_node4node11_t3  M_wide_node4node11_t4  M_wide_node4node11_t5 
 M_timber_node4node6_t0  M_timber_node4node6_t1  M_timber_node4node6_t2 
 M_timber_node4node6_t3  M_timber_node4node6_t4  M_timber_node4node6_t5 
 M_wide_node4node6_t0  M_wide_node4node6_t1  M_wide_node4node6_t2 
 M_wide_node4node6_t3  M_wide_node4node6_t4  M_wide_node4node6_t5 
 M_timber_node4node13_t0  M_timber_node4node13_t1  M_timber_node4node13_t2 
 M_timber_node4node13_t3  M_timber_node4node13_t4  M_timber_node4node13_t5 
 M_wide_node4node13_t0  M_wide_node4node13_t1  M_wide_node4node13_t2 
 M_wide_node4node13_t3  M_wide_node4node13_t4  M_wide_node4node13_t5 
 M_timber_node4node14_t0  M_timber_node4node14_t1  M_timber_node4node14_t2 
 M_timber_node4node14_t3  M_timber_node4node14_t4  M_timber_node4node14_t5 
 M_wide_node4node14_t0  M_wide_node4node14_t1  M_wide_node4node14_t2 
 M_wide_node4node14_t3  M_wide_node4node14_t4  M_wide_node4node14_t5 
 M_timber_node5node8_t0  M_timber_node5node8_t1  M_timber_node5node8_t2 
 M_timber_node5node8_t3  M_timber_node5node8_t4  M_timber_node5node8_t5 
 M_wide_node5node8_t0  M_wide_node5node8_t1  M_wide_node5node8_t2 
 M_wide_node5node8_t3  M_wide_node5node8_t4  M_wide_node5node8_t5 
 M_timber_node5node13_t0  M_timber_node5node13_t1  M_timber_node5node13_t2 
 M_timber_node5node13_t3  M_timber_node5node13_t4  M_timber_node5node13_t5 
 M_wide_node5node13_t0  M_wide_node5node13_t1  M_wide_node5node13_t2 
 M_wide_node5node13_t3  M_wide_node5node13_t4  M_wide_node5node13_t5 
 M_timber_node6node10_t0  M_timber_node6node10_t1  M_timber_node6node10_t2 
 M_timber_node6node10_t3  M_timber_node6node10_t4  M_timber_node6node10_t5 
 M_wide_node6node10_t0  M_wide_node6node10_t1  M_wide_node6node10_t2 
 M_wide_node6node10_t3  M_wide_node6node10_t4  M_wide_node6node10_t5 
 M_timber_node6node9_t0  M_timber_node6node9_t1  M_timber_node6node9_t2 
 M_timber_node6node9_t3  M_timber_node6node9_t4  M_timber_node6node9_t5 
 M_wide_node6node9_t0  M_wide_node6node9_t1  M_wide_node6node9_t2 
 M_wide_node6node9_t3  M_wide_node6node9_t4  M_wide_node6node9_t5 
 M_timber_node6node13_t0  M_timber_node6node13_t1  M_timber_node6node13_t2 
 M_timber_node6node13_t3  M_timber_node6node13_t4  M_timber_node6node13_t5 
 M_wide_node6node13_t0  M_wide_node6node13_t1  M_wide_node6node13_t2 
 M_wide_node6node13_t3  M_wide_node6node13_t4  M_wide_node6node13_t5 
 M_timber_node6node14_t0  M_timber_node6node14_t1  M_timber_node6node14_t2 
 M_timber_node6node14_t3  M_timber_node6node14_t4  M_timber_node6node14_t5 
 M_wide_node6node14_t0  M_wide_node6node14_t1  M_wide_node6node14_t2 
 M_wide_node6node14_t3  M_wide_node6node14_t4  M_wide_node6node14_t5 
 M_timber_node7node10_t0  M_timber_node7node10_t1  M_timber_node7node10_t2 
 M_timber_node7node10_t3  M_timber_node7node10_t4  M_timber_node7node10_t5 
 M_wide_node7node10_t0  M_wide_node7node10_t1  M_wide_node7node10_t2 
 M_wide_node7node10_t3  M_wide_node7node10_t4  M_wide_node7node10_t5 
 M_timber_node7node8_t0  M_timber_node7node8_t1  M_timber_node7node8_t2 
 M_timber_node7node8_t3  M_timber_node7node8_t4  M_timber_node7node8_t5 
 M_wide_node7node8_t0  M_wide_node7node8_t1  M_wide_node7node8_t2 
 M_wide_node7node8_t3  M_wide_node7node8_t4  M_wide_node7node8_t5 
 M_timber_node7node12_t0  M_timber_node7node12_t1  M_timber_node7node12_t2 
 M_timber_node7node12_t3  M_timber_node7node12_t4  M_timber_node7node12_t5 
 M_wide_node7node12_t0  M_wide_node7node12_t1  M_wide_node7node12_t2 
 M_wide_node7node12_t3  M_wide_node7node12_t4  M_wide_node7node12_t5 
 M_timber_node7node13_t0  M_timber_node7node13_t1  M_timber_node7node13_t2 
 M_timber_node7node13_t3  M_timber_node7node13_t4  M_timber_node7node13_t5 
 M_wide_node7node13_t0  M_wide_node7node13_t1  M_wide_node7node13_t2 
 M_wide_node7node13_t3  M_wide_node7node13_t4  M_wide_node7node13_t5 
 M_timber_node8node12_t0  M_timber_node8node12_t1  M_timber_node8node12_t2 
 M_timber_node8node12_t3  M_timber_node8node12_t4  M_timber_node8node12_t5 
 M_wide_node8node12_t0  M_wide_node8node12_t1  M_wide_node8node12_t2 
 M_wide_node8node12_t3  M_wide_node8node12_t4  M_wide_node8node12_t5 
 M_timber_node8node13_t0  M_timber_node8node13_t1  M_timber_node8node13_t2 
 M_timber_node8node13_t3  M_timber_node8node13_t4  M_timber_node8node13_t5 
 M_wide_node8node13_t0  M_wide_node8node13_t1  M_wide_node8node13_t2 
 M_wide_node8node13_t3  M_wide_node8node13_t4  M_wide_node8node13_t5 
 M_timber_node9node11_t0  M_timber_node9node11_t1  M_timber_node9node11_t2 
 M_timber_node9node11_t3  M_timber_node9node11_t4  M_timber_node9node11_t5 
 M_wide_node9node11_t0  M_wide_node9node11_t1  M_wide_node9node11_t2 
 M_wide_node9node11_t3  M_wide_node9node11_t4  M_wide_node9node11_t5 
 M_timber_node9node14_t0  M_timber_node9node14_t1  M_timber_node9node14_t2 
 M_timber_node9node14_t3  M_timber_node9node14_t4  M_timber_node9node14_t5 
 M_wide_node9node14_t0  M_wide_node9node14_t1  M_wide_node9node14_t2 
 M_wide_node9node14_t3  M_wide_node9node14_t4  M_wide_node9node14_t5 
 M_timber_node10node13_t0  M_timber_node10node13_t1  M_timber_node10node13_t2 
 M_timber_node10node13_t3  M_timber_node10node13_t4  M_timber_node10node13_t5 
 M_wide_node10node13_t0  M_wide_node10node13_t1  M_wide_node10node13_t2 
 M_wide_node10node13_t3  M_wide_node10node13_t4  M_wide_node10node13_t5 
 M_timber_node11node14_t0  M_timber_node11node14_t1  M_timber_node11node14_t2 
 M_timber_node11node14_t3  M_timber_node11node14_t4  M_timber_node11node14_t5 
 M_wide_node11node14_t0  M_wide_node11node14_t1  M_wide_node11node14_t2 
 M_wide_node11node14_t3  M_wide_node11node14_t4  M_wide_node11node14_t5 
 U_node1node3_t0  U_node1node3_t1  U_node1node3_t2  U_node1node3_t3 
 U_node1node3_t4  U_node1node3_t5  U_node1node2_t0  U_node1node2_t1 
 U_node1node2_t2  U_node1node2_t3  U_node1node2_t4  U_node1node2_t5 
 U_node1node7_t0  U_node1node7_t1  U_node1node7_t2  U_node1node7_t3 
 U_node1node7_t4  U_node1node7_t5  U_node1node12_t0  U_node1node12_t1 
 U_node1node12_t2  U_node1node12_t3  U_node1node12_t4  U_node1node12_t5 
 U_node1node15_t0  U_node1node15_t1  U_node1node15_t2  U_node1node15_t3 
 U_node1node15_t4  U_node1node15_t5  U_node2node3_t0  U_node2node3_t1 
 U_node2node3_t2  U_node2node3_t3  U_node2node3_t4  U_node2node3_t5 
 U_node2node12_t0  U_node2node12_t1  U_node2node12_t2  U_node2node12_t3 
 U_node2node12_t4  U_node2node12_t5  U_node2node15_t0  U_node2node15_t1 
 U_node2node15_t2  U_node2node15_t3  U_node2node15_t4  U_node2node15_t5 
 U_node3node8_t0  U_node3node8_t1  U_node3node8_t2  U_node3node8_t3 
 U_node3node8_t4  U_node3node8_t5  U_node3node12_t0  U_node3node12_t1 
 U_node3node12_t2  U_node3node12_t3  U_node3node12_t4  U_node3node12_t5 
 U_node3node15_t0  U_node3node15_t1  U_node3node15_t2  U_node3node15_t3 
 U_node3node15_t4  U_node3node15_t5  U_node4node5_t0  U_node4node5_t1 
 U_node4node5_t2  U_node4node5_t3  U_node4node5_t4  U_node4node5_t5 
 U_node4node11_t0  U_node4node11_t1  U_node4node11_t2  U_node4node11_t3 
 U_node4node11_t4  U_node4node11_t5  U_node4node6_t0  U_node4node6_t1 
 U_node4node6_t2  U_node4node6_t3  U_node4node6_t4  U_node4node6_t5 
 U_node4node13_t0  U_node4node13_t1  U_node4node13_t2  U_node4node13_t3 
 U_node4node13_t4  U_node4node13_t5  U_node4node14_t0  U_node4node14_t1 
 U_node4node14_t2  U_node4node14_t3  U_node4node14_t4  U_node4node14_t5 
 U_node5node8_t0  U_node5node8_t1  U_node5node8_t2  U_node5node8_t3 
 U_node5node8_t4  U_node5node8_t5  U_node5node13_t0  U_node5node13_t1 
 U_node5node13_t2  U_node5node13_t3  U_node5node13_t4  U_node5node13_t5 
 U_node6node10_t0  U_node6node10_t1  U_node6node10_t2  U_node6node10_t3 
 U_node6node10_t4  U_node6node10_t5  U_node6node9_t0  U_node6node9_t1 
 U_node6node9_t2  U_node6node9_t3  U_node6node9_t4  U_node6node9_t5 
 U_node6node13_t0  U_node6node13_t1  U_node6node13_t2  U_node6node13_t3 
 U_node6node13_t4  U_node6node13_t5  U_node6node14_t0  U_node6node14_t1 
 U_node6node14_t2  U_node6node14_t3  U_node6node14_t4  U_node6node14_t5 
 U_node7node10_t0  U_node7node10_t1  U_node7node10_t2  U_node7node10_t3 
 U_node7node10_t4  U_node7node10_t5  U_node7node8_t0  U_node7node8_t1 
 U_node7node8_t2  U_node7node8_t3  U_node7node8_t4  U_node7node8_t5 
 U_node7node12_t0  U_node7node12_t1  U_node7node12_t2  U_node7node12_t3 
 U_node7node12_t4  U_node7node12_t5  U_node7node13_t0  U_node7node13_t1 
 U_node7node13_t2  U_node7node13_t3  U_node7node13_t4  U_node7node13_t5 
 U_node8node12_t0  U_node8node12_t1  U_node8node12_t2  U_node8node12_t3 
 U_node8node12_t4  U_node8node12_t5  U_node8node13_t0  U_node8node13_t1 
 U_node8node13_t2  U_node8node13_t3  U_node8node13_t4  U_node8node13_t5 
 U_node9node11_t0  U_node9node11_t1  U_node9node11_t2  U_node9node11_t3 
 U_node9node11_t4  U_node9node11_t5  U_node9node14_t0  U_node9node14_t1 
 U_node9node14_t2  U_node9node14_t3  U_node9node14_t4  U_node9node14_t5 
 U_node10node13_t0  U_node10node13_t1  U_node10node13_t2  U_node10node13_t3 
 U_node10node13_t4  U_node10node13_t5  U_node11node14_t0  U_node11node14_t1 
 U_node11node14_t2  U_node11node14_t3  U_node11node14_t4  U_node11node14_t5 
Generals
 flow_timber_node1node3_t1  flow_timber_node1node3_t2 
 flow_timber_node1node3_t3  flow_timber_node1node3_t4 
 flow_timber_node1node3_t5  flow_wide_node1node3_t1  flow_wide_node1node3_t2 
 flow_wide_node1node3_t3  flow_wide_node1node3_t4  flow_wide_node1node3_t5 
 flow_timber_node1node2_t1  flow_timber_node1node2_t2 
 flow_timber_node1node2_t3  flow_timber_node1node2_t4 
 flow_timber_node1node2_t5  flow_wide_node1node2_t1  flow_wide_node1node2_t2 
 flow_wide_node1node2_t3  flow_wide_node1node2_t4  flow_wide_node1node2_t5 
 flow_timber_node1node7_t1  flow_timber_node1node7_t2 
 flow_timber_node1node7_t3  flow_timber_node1node7_t4 
 flow_timber_node1node7_t5  flow_wide_node1node7_t1  flow_wide_node1node7_t2 
 flow_wide_node1node7_t3  flow_wide_node1node7_t4  flow_wide_node1node7_t5 
 flow_timber_node1node12_t1  flow_timber_node1node12_t2 
 flow_timber_node1node12_t3  flow_timber_node1node12_t4 
 flow_timber_node1node12_t5  flow_wide_node1node12_t1 
 flow_wide_node1node12_t2  flow_wide_node1node12_t3  flow_wide_node1node12_t4 
 flow_wide_node1node12_t5  flow_timber_node1node15_t1 
 flow_timber_node1node15_t2  flow_timber_node1node15_t3 
 flow_timber_node1node15_t4  flow_timber_node1node15_t5 
 flow_wide_node1node15_t1  flow_wide_node1node15_t2  flow_wide_node1node15_t3 
 flow_wide_node1node15_t4  flow_wide_node1node15_t5  flow_timber_node3node1_t1 
 flow_timber_node3node1_t2  flow_timber_node3node1_t3 
 flow_timber_node3node1_t4  flow_timber_node3node1_t5  flow_wide_node3node1_t1 
 flow_wide_node3node1_t2  flow_wide_node3node1_t3  flow_wide_node3node1_t4 
 flow_wide_node3node1_t5  flow_timber_node3node2_t1  flow_timber_node3node2_t2 
 flow_timber_node3node2_t3  flow_timber_node3node2_t4 
 flow_timber_node3node2_t5  flow_wide_node3node2_t1  flow_wide_node3node2_t2 
 flow_wide_node3node2_t3  flow_wide_node3node2_t4  flow_wide_node3node2_t5 
 flow_timber_node3node8_t1  flow_timber_node3node8_t2 
 flow_timber_node3node8_t3  flow_timber_node3node8_t4 
 flow_timber_node3node8_t5  flow_wide_node3node8_t1  flow_wide_node3node8_t2 
 flow_wide_node3node8_t3  flow_wide_node3node8_t4  flow_wide_node3node8_t5 
 flow_timber_node3node12_t1  flow_timber_node3node12_t2 
 flow_timber_node3node12_t3  flow_timber_node3node12_t4 
 flow_timber_node3node12_t5  flow_wide_node3node12_t1 
 flow_wide_node3node12_t2  flow_wide_node3node12_t3  flow_wide_node3node12_t4 
 flow_wide_node3node12_t5  flow_timber_node3node15_t1 
 flow_timber_node3node15_t2  flow_timber_node3node15_t3 
 flow_timber_node3node15_t4  flow_timber_node3node15_t5 
 flow_wide_node3node15_t1  flow_wide_node3node15_t2  flow_wide_node3node15_t3 
 flow_wide_node3node15_t4  flow_wide_node3node15_t5  flow_timber_node2node1_t1 
 flow_timber_node2node1_t2  flow_timber_node2node1_t3 
 flow_timber_node2node1_t4  flow_timber_node2node1_t5  flow_wide_node2node1_t1 
 flow_wide_node2node1_t2  flow_wide_node2node1_t3  flow_wide_node2node1_t4 
 flow_wide_node2node1_t5  flow_timber_node2node3_t1  flow_timber_node2node3_t2 
 flow_timber_node2node3_t3  flow_timber_node2node3_t4 
 flow_timber_node2node3_t5  flow_wide_node2node3_t1  flow_wide_node2node3_t2 
 flow_wide_node2node3_t3  flow_wide_node2node3_t4  flow_wide_node2node3_t5 
 flow_timber_node2node12_t1  flow_timber_node2node12_t2 
 flow_timber_node2node12_t3  flow_timber_node2node12_t4 
 flow_timber_node2node12_t5  flow_wide_node2node12_t1 
 flow_wide_node2node12_t2  flow_wide_node2node12_t3  flow_wide_node2node12_t4 
 flow_wide_node2node12_t5  flow_timber_node2node15_t1 
 flow_timber_node2node15_t2  flow_timber_node2node15_t3 
 flow_timber_node2node15_t4  flow_timber_node2node15_t5 
 flow_wide_node2node15_t1  flow_wide_node2node15_t2  flow_wide_node2node15_t3 
 flow_wide_node2node15_t4  flow_wide_node2node15_t5  flow_timber_node7node1_t1 
 flow_timber_node7node1_t2  flow_timber_node7node1_t3 
 flow_timber_node7node1_t4  flow_timber_node7node1_t5  flow_wide_node7node1_t1 
 flow_wide_node7node1_t2  flow_wide_node7node1_t3  flow_wide_node7node1_t4 
 flow_wide_node7node1_t5  flow_timber_node7node10_t1 
 flow_timber_node7node10_t2  flow_timber_node7node10_t3 
 flow_timber_node7node10_t4  flow_timber_node7node10_t5 
 flow_wide_node7node10_t1  flow_wide_node7node10_t2  flow_wide_node7node10_t3 
 flow_wide_node7node10_t4  flow_wide_node7node10_t5  flow_timber_node7node8_t1 
 flow_timber_node7node8_t2  flow_timber_node7node8_t3 
 flow_timber_node7node8_t4  flow_timber_node7node8_t5  flow_wide_node7node8_t1 
 flow_wide_node7node8_t2  flow_wide_node7node8_t3  flow_wide_node7node8_t4 
 flow_wide_node7node8_t5  flow_timber_node7node12_t1 
 flow_timber_node7node12_t2  flow_timber_node7node12_t3 
 flow_timber_node7node12_t4  flow_timber_node7node12_t5 
 flow_wide_node7node12_t1  flow_wide_node7node12_t2  flow_wide_node7node12_t3 
 flow_wide_node7node12_t4  flow_wide_node7node12_t5 
 flow_timber_node7node13_t1  flow_timber_node7node13_t2 
 flow_timber_node7node13_t3  flow_timber_node7node13_t4 
 flow_timber_node7node13_t5  flow_wide_node7node13_t1 
 flow_wide_node7node13_t2  flow_wide_node7node13_t3  flow_wide_node7node13_t4 
 flow_wide_node7node13_t5  flow_timber_node12node1_t1 
 flow_timber_node12node1_t2  flow_timber_node12node1_t3 
 flow_timber_node12node1_t4  flow_timber_node12node1_t5 
 flow_wide_node12node1_t1  flow_wide_node12node1_t2  flow_wide_node12node1_t3 
 flow_wide_node12node1_t4  flow_wide_node12node1_t5 
 flow_timber_node12node2_t1  flow_timber_node12node2_t2 
 flow_timber_node12node2_t3  flow_timber_node12node2_t4 
 flow_timber_node12node2_t5  flow_wide_node12node2_t1 
 flow_wide_node12node2_t2  flow_wide_node12node2_t3  flow_wide_node12node2_t4 
 flow_wide_node12node2_t5  flow_timber_node12node3_t1 
 flow_timber_node12node3_t2  flow_timber_node12node3_t3 
 flow_timber_node12node3_t4  flow_timber_node12node3_t5 
 flow_wide_node12node3_t1  flow_wide_node12node3_t2  flow_wide_node12node3_t3 
 flow_wide_node12node3_t4  flow_wide_node12node3_t5 
 flow_timber_node12node7_t1  flow_timber_node12node7_t2 
 flow_timber_node12node7_t3  flow_timber_node12node7_t4 
 flow_timber_node12node7_t5  flow_wide_node12node7_t1 
 flow_wide_node12node7_t2  flow_wide_node12node7_t3  flow_wide_node12node7_t4 
 flow_wide_node12node7_t5  flow_timber_node12node8_t1 
 flow_timber_node12node8_t2  flow_timber_node12node8_t3 
 flow_timber_node12node8_t4  flow_timber_node12node8_t5 
 flow_wide_node12node8_t1  flow_wide_node12node8_t2  flow_wide_node12node8_t3 
 flow_wide_node12node8_t4  flow_wide_node12node8_t5 
 flow_timber_node15node1_t1  flow_timber_node15node1_t2 
 flow_timber_node15node1_t3  flow_timber_node15node1_t4 
 flow_timber_node15node1_t5  flow_wide_node15node1_t1 
 flow_wide_node15node1_t2  flow_wide_node15node1_t3  flow_wide_node15node1_t4 
 flow_wide_node15node1_t5  flow_timber_node15node2_t1 
 flow_timber_node15node2_t2  flow_timber_node15node2_t3 
 flow_timber_node15node2_t4  flow_timber_node15node2_t5 
 flow_wide_node15node2_t1  flow_wide_node15node2_t2  flow_wide_node15node2_t3 
 flow_wide_node15node2_t4  flow_wide_node15node2_t5 
 flow_timber_node15node3_t1  flow_timber_node15node3_t2 
 flow_timber_node15node3_t3  flow_timber_node15node3_t4 
 flow_timber_node15node3_t5  flow_wide_node15node3_t1 
 flow_wide_node15node3_t2  flow_wide_node15node3_t3  flow_wide_node15node3_t4 
 flow_wide_node15node3_t5  flow_timber_node8node3_t1 
 flow_timber_node8node3_t2  flow_timber_node8node3_t3 
 flow_timber_node8node3_t4  flow_timber_node8node3_t5  flow_wide_node8node3_t1 
 flow_wide_node8node3_t2  flow_wide_node8node3_t3  flow_wide_node8node3_t4 
 flow_wide_node8node3_t5  flow_timber_node8node5_t1  flow_timber_node8node5_t2 
 flow_timber_node8node5_t3  flow_timber_node8node5_t4 
 flow_timber_node8node5_t5  flow_wide_node8node5_t1  flow_wide_node8node5_t2 
 flow_wide_node8node5_t3  flow_wide_node8node5_t4  flow_wide_node8node5_t5 
 flow_timber_node8node7_t1  flow_timber_node8node7_t2 
 flow_timber_node8node7_t3  flow_timber_node8node7_t4 
 flow_timber_node8node7_t5  flow_wide_node8node7_t1  flow_wide_node8node7_t2 
 flow_wide_node8node7_t3  flow_wide_node8node7_t4  flow_wide_node8node7_t5 
 flow_timber_node8node12_t1  flow_timber_node8node12_t2 
 flow_timber_node8node12_t3  flow_timber_node8node12_t4 
 flow_timber_node8node12_t5  flow_wide_node8node12_t1 
 flow_wide_node8node12_t2  flow_wide_node8node12_t3  flow_wide_node8node12_t4 
 flow_wide_node8node12_t5  flow_timber_node8node13_t1 
 flow_timber_node8node13_t2  flow_timber_node8node13_t3 
 flow_timber_node8node13_t4  flow_timber_node8node13_t5 
 flow_wide_node8node13_t1  flow_wide_node8node13_t2  flow_wide_node8node13_t3 
 flow_wide_node8node13_t4  flow_wide_node8node13_t5  flow_timber_node4node5_t1 
 flow_timber_node4node5_t2  flow_timber_node4node5_t3 
 flow_timber_node4node5_t4  flow_timber_node4node5_t5  flow_wide_node4node5_t1 
 flow_wide_node4node5_t2  flow_wide_node4node5_t3  flow_wide_node4node5_t4 
 flow_wide_node4node5_t5  flow_timber_node4node11_t1 
 flow_timber_node4node11_t2  flow_timber_node4node11_t3 
 flow_timber_node4node11_t4  flow_timber_node4node11_t5 
 flow_wide_node4node11_t1  flow_wide_node4node11_t2  flow_wide_node4node11_t3 
 flow_wide_node4node11_t4  flow_wide_node4node11_t5  flow_timber_node4node6_t1 
 flow_timber_node4node6_t2  flow_timber_node4node6_t3 
 flow_timber_node4node6_t4  flow_timber_node4node6_t5  flow_wide_node4node6_t1 
 flow_wide_node4node6_t2  flow_wide_node4node6_t3  flow_wide_node4node6_t4 
 flow_wide_node4node6_t5  flow_timber_node4node13_t1 
 flow_timber_node4node13_t2  flow_timber_node4node13_t3 
 flow_timber_node4node13_t4  flow_timber_node4node13_t5 
 flow_wide_node4node13_t1  flow_wide_node4node13_t2  flow_wide_node4node13_t3 
 flow_wide_node4node13_t4  flow_wide_node4node13_t5 
 flow_timber_node4node14_t1  flow_timber_node4node14_t2 
 flow_timber_node4node14_t3  flow_timber_node4node14_t4 
 flow_timber_node4node14_t5  flow_wide_node4node14_t1 
 flow_wide_node4node14_t2  flow_wide_node4node14_t3  flow_wide_node4node14_t4 
 flow_wide_node4node14_t5  flow_timber_node5node4_t1 
 flow_timber_node5node4_t2  flow_timber_node5node4_t3 
 flow_timber_node5node4_t4  flow_timber_node5node4_t5  flow_wide_node5node4_t1 
 flow_wide_node5node4_t2  flow_wide_node5node4_t3  flow_wide_node5node4_t4 
 flow_wide_node5node4_t5  flow_timber_node5node8_t1  flow_timber_node5node8_t2 
 flow_timber_node5node8_t3  flow_timber_node5node8_t4 
 flow_timber_node5node8_t5  flow_wide_node5node8_t1  flow_wide_node5node8_t2 
 flow_wide_node5node8_t3  flow_wide_node5node8_t4  flow_wide_node5node8_t5 
 flow_timber_node5node13_t1  flow_timber_node5node13_t2 
 flow_timber_node5node13_t3  flow_timber_node5node13_t4 
 flow_timber_node5node13_t5  flow_wide_node5node13_t1 
 flow_wide_node5node13_t2  flow_wide_node5node13_t3  flow_wide_node5node13_t4 
 flow_wide_node5node13_t5  flow_timber_node11node4_t1 
 flow_timber_node11node4_t2  flow_timber_node11node4_t3 
 flow_timber_node11node4_t4  flow_timber_node11node4_t5 
 flow_wide_node11node4_t1  flow_wide_node11node4_t2  flow_wide_node11node4_t3 
 flow_wide_node11node4_t4  flow_wide_node11node4_t5 
 flow_timber_node11node9_t1  flow_timber_node11node9_t2 
 flow_timber_node11node9_t3  flow_timber_node11node9_t4 
 flow_timber_node11node9_t5  flow_wide_node11node9_t1 
 flow_wide_node11node9_t2  flow_wide_node11node9_t3  flow_wide_node11node9_t4 
 flow_wide_node11node9_t5  flow_timber_node11node14_t1 
 flow_timber_node11node14_t2  flow_timber_node11node14_t3 
 flow_timber_node11node14_t4  flow_timber_node11node14_t5 
 flow_wide_node11node14_t1  flow_wide_node11node14_t2 
 flow_wide_node11node14_t3  flow_wide_node11node14_t4 
 flow_wide_node11node14_t5  flow_timber_node6node4_t1 
 flow_timber_node6node4_t2  flow_timber_node6node4_t3 
 flow_timber_node6node4_t4  flow_timber_node6node4_t5  flow_wide_node6node4_t1 
 flow_wide_node6node4_t2  flow_wide_node6node4_t3  flow_wide_node6node4_t4 
 flow_wide_node6node4_t5  flow_timber_node6node10_t1 
 flow_timber_node6node10_t2  flow_timber_node6node10_t3 
 flow_timber_node6node10_t4  flow_timber_node6node10_t5 
 flow_wide_node6node10_t1  flow_wide_node6node10_t2  flow_wide_node6node10_t3 
 flow_wide_node6node10_t4  flow_wide_node6node10_t5  flow_timber_node6node9_t1 
 flow_timber_node6node9_t2  flow_timber_node6node9_t3 
 flow_timber_node6node9_t4  flow_timber_node6node9_t5  flow_wide_node6node9_t1 
 flow_wide_node6node9_t2  flow_wide_node6node9_t3  flow_wide_node6node9_t4 
 flow_wide_node6node9_t5  flow_timber_node6node13_t1 
 flow_timber_node6node13_t2  flow_timber_node6node13_t3 
 flow_timber_node6node13_t4  flow_timber_node6node13_t5 
 flow_wide_node6node13_t1  flow_wide_node6node13_t2  flow_wide_node6node13_t3 
 flow_wide_node6node13_t4  flow_wide_node6node13_t5 
 flow_timber_node6node14_t1  flow_timber_node6node14_t2 
 flow_timber_node6node14_t3  flow_timber_node6node14_t4 
 flow_timber_node6node14_t5  flow_wide_node6node14_t1 
 flow_wide_node6node14_t2  flow_wide_node6node14_t3  flow_wide_node6node14_t4 
 flow_wide_node6node14_t5  flow_timber_node13node4_t1 
 flow_timber_node13node4_t2  flow_timber_node13node4_t3 
 flow_timber_node13node4_t4  flow_timber_node13node4_t5 
 flow_wide_node13node4_t1  flow_wide_node13node4_t2  flow_wide_node13node4_t3 
 flow_wide_node13node4_t4  flow_wide_node13node4_t5 
 flow_timber_node13node5_t1  flow_timber_node13node5_t2 
 flow_timber_node13node5_t3  flow_timber_node13node5_t4 
 flow_timber_node13node5_t5  flow_wide_node13node5_t1 
 flow_wide_node13node5_t2  flow_wide_node13node5_t3  flow_wide_node13node5_t4 
 flow_wide_node13node5_t5  flow_timber_node13node6_t1 
 flow_timber_node13node6_t2  flow_timber_node13node6_t3 
 flow_timber_node13node6_t4  flow_timber_node13node6_t5 
 flow_wide_node13node6_t1  flow_wide_node13node6_t2  flow_wide_node13node6_t3 
 flow_wide_node13node6_t4  flow_wide_node13node6_t5 
 flow_timber_node13node7_t1  flow_timber_node13node7_t2 
 flow_timber_node13node7_t3  flow_timber_node13node7_t4 
 flow_timber_node13node7_t5  flow_wide_node13node7_t1 
 flow_wide_node13node7_t2  flow_wide_node13node7_t3  flow_wide_node13node7_t4 
 flow_wide_node13node7_t5  flow_timber_node13node8_t1 
 flow_timber_node13node8_t2  flow_timber_node13node8_t3 
 flow_timber_node13node8_t4  flow_timber_node13node8_t5 
 flow_wide_node13node8_t1  flow_wide_node13node8_t2  flow_wide_node13node8_t3 
 flow_wide_node13node8_t4  flow_wide_node13node8_t5 
 flow_timber_node13node10_t1  flow_timber_node13node10_t2 
 flow_timber_node13node10_t3  flow_timber_node13node10_t4 
 flow_timber_node13node10_t5  flow_wide_node13node10_t1 
 flow_wide_node13node10_t2  flow_wide_node13node10_t3 
 flow_wide_node13node10_t4  flow_wide_node13node10_t5 
 flow_timber_node14node4_t1  flow_timber_node14node4_t2 
 flow_timber_node14node4_t3  flow_timber_node14node4_t4 
 flow_timber_node14node4_t5  flow_wide_node14node4_t1 
 flow_wide_node14node4_t2  flow_wide_node14node4_t3  flow_wide_node14node4_t4 
 flow_wide_node14node4_t5  flow_timber_node14node6_t1 
 flow_timber_node14node6_t2  flow_timber_node14node6_t3 
 flow_timber_node14node6_t4  flow_timber_node14node6_t5 
 flow_wide_node14node6_t1  flow_wide_node14node6_t2  flow_wide_node14node6_t3 
 flow_wide_node14node6_t4  flow_wide_node14node6_t5 
 flow_timber_node14node9_t1  flow_timber_node14node9_t2 
 flow_timber_node14node9_t3  flow_timber_node14node9_t4 
 flow_timber_node14node9_t5  flow_wide_node14node9_t1 
 flow_wide_node14node9_t2  flow_wide_node14node9_t3  flow_wide_node14node9_t4 
 flow_wide_node14node9_t5  flow_timber_node14node11_t1 
 flow_timber_node14node11_t2  flow_timber_node14node11_t3 
 flow_timber_node14node11_t4  flow_timber_node14node11_t5 
 flow_wide_node14node11_t1  flow_wide_node14node11_t2 
 flow_wide_node14node11_t3  flow_wide_node14node11_t4 
 flow_wide_node14node11_t5  flow_timber_node10node6_t1 
 flow_timber_node10node6_t2  flow_timber_node10node6_t3 
 flow_timber_node10node6_t4  flow_timber_node10node6_t5 
 flow_wide_node10node6_t1  flow_wide_node10node6_t2  flow_wide_node10node6_t3 
 flow_wide_node10node6_t4  flow_wide_node10node6_t5 
 flow_timber_node10node7_t1  flow_timber_node10node7_t2 
 flow_timber_node10node7_t3  flow_timber_node10node7_t4 
 flow_timber_node10node7_t5  flow_wide_node10node7_t1 
 flow_wide_node10node7_t2  flow_wide_node10node7_t3  flow_wide_node10node7_t4 
 flow_wide_node10node7_t5  flow_timber_node10node13_t1 
 flow_timber_node10node13_t2  flow_timber_node10node13_t3 
 flow_timber_node10node13_t4  flow_timber_node10node13_t5 
 flow_wide_node10node13_t1  flow_wide_node10node13_t2 
 flow_wide_node10node13_t3  flow_wide_node10node13_t4 
 flow_wide_node10node13_t5  flow_timber_node9node6_t1 
 flow_timber_node9node6_t2  flow_timber_node9node6_t3 
 flow_timber_node9node6_t4  flow_timber_node9node6_t5  flow_wide_node9node6_t1 
 flow_wide_node9node6_t2  flow_wide_node9node6_t3  flow_wide_node9node6_t4 
 flow_wide_node9node6_t5  flow_timber_node9node11_t1 
 flow_timber_node9node11_t2  flow_timber_node9node11_t3 
 flow_timber_node9node11_t4  flow_timber_node9node11_t5 
 flow_wide_node9node11_t1  flow_wide_node9node11_t2  flow_wide_node9node11_t3 
 flow_wide_node9node11_t4  flow_wide_node9node11_t5 
 flow_timber_node9node14_t1  flow_timber_node9node14_t2 
 flow_timber_node9node14_t3  flow_timber_node9node14_t4 
 flow_timber_node9node14_t5  flow_wide_node9node14_t1 
 flow_wide_node9node14_t2  flow_wide_node9node14_t3  flow_wide_node9node14_t4 
 flow_wide_node9node14_t5 
End
